$*$$$$$$$$$$$$$$$$$$$$$$$$$$$$$$$$$$$$$$$$$$$$$$$$$$$$$$$$$$$$$$$$$
$*
$*                    Simcenter v1961.0.0.2202 Translator
$*                    for Simcenter Nastran version 2021.1
$*
$*             FEM FILE: C:\Users\s0166875\Documents\GitHub\DigitalDriveShaft\src\DigitalDriveShaft\examples\reference_shaft_fem1.fem
$*             SIM FILE: C:\Users\s0166875\Documents\GitHub\DigitalDriveShaft\src\DigitalDriveShaft\examples\reference_shaft_sim1.sim
$*        ANALYSIS TYPE: Structural
$*        SOLUTION NAME: Solution 1
$*        SOLUTION TYPE: SOL 101 Linear Statics - Global Constraints
$*
$*    SOLVER INPUT FILE: reference_shaft_sim1-solution_1.dat
$*        CREATION DATE: 25-Apr-2022
$*        CREATION TIME: 13:25:03
$*             HOSTNAME: MLKP531
$*      NASTRAN LICENSE: Desktop Bundle
$*
$*                UNITS: mm (milli-newton)
$*                      ... LENGTH : mm
$*                      ... TIME   : sec
$*                      ... MASS   : kilogram (kg)
$*                      ... TEMPERATURE : deg Celsius
$*                      ... FORCE  : milli-newton
$*                      ... THERMAL ENERGY : mN-mm (micro-joule)
$*
$* IMPORTANT NOTE:
$*     This banner was generated by Simcenter and altering this 
$*     information may compromise the pre and post processing of results
$*
$*$$$$$$$$$$$$$$$$$$$$$$$$$$$$$$$$$$$$$$$$$$$$$$$$$$$$$$$$$$$$$$$$$
$*
$*$$$$$$$$$$$$$$$$$$$$$$$$$$$$$$$$$$$
$*
$* FILE MANAGEMENT
$*
$*$$$$$$$$$$$$$$$$$$$$$$$$$$$$$$$$$$$
$*
$*
$*$$$$$$$$$$$$$$$$$$$$$$$$$$$$$$$$$$$
$*
$* EXECUTIVE CONTROL
$*
$*$$$$$$$$$$$$$$$$$$$$$$$$$$$$$$$$$$$
$*
ID,NASTRAN,reference_shaft_sim1-solution_1
SOL 101
CEND
$*
$*$$$$$$$$$$$$$$$$$$$$$$$$$$$$$$$$$$$
$*
$* CASE CONTROL
$*
$*$$$$$$$$$$$$$$$$$$$$$$$$$$$$$$$$$$$
$*
ECHO = NONE
SPC = 1
OUTPUT
DISPLACEMENT(PLOT,REAL) = ALL
SPCFORCES(PLOT,REAL) = ALL
STRESS(PLOT,REAL,VONMISES,CENTER) = ALL
$*  Step: Subcase - Static Loads 1
SUBCASE 1
  LABEL = Subcase - Static Loads 1
  LOAD = 2
$*
$*$$$$$$$$$$$$$$$$$$$$$$$$$$$$$$$$$$$
$*
$* BULK DATA
$*
$*$$$$$$$$$$$$$$$$$$$$$$$$$$$$$$$$$$$
$*
BEGIN BULK
$*
$* PARAM CARDS
$*
PARAM      K6ROT100.0000
PARAM     OIBULK     YES
PARAM    OMACHPR     YES
PARAM       POST      -2
PARAM    POSTEXT     YES
PARAM    UNITSYS   MN-MM
$*
$* GRID CARDS
$*
GRID*                353               07.8035553533E-01-3.869593440E+00+
*       9.0000006878E+00               0
GRID*                354               07.8036592320E-01-3.869590984E+00+
*       8.0000002938E+00               0
GRID*                355               01.5307317866E+00-3.641970087E+00+
*       7.9999996864E+00               0
GRID*                356               01.5307327991E+00-3.641969734E+00+
*       8.9999998408E+00               0
GRID*                357               02.2222788652E+003.3794251706E+00+
*       9.9999999186E+00               0
GRID*                358               02.2222844588E+003.3794214817E+00+
*       9.0000006493E+00               0
GRID*                359               01.5307357884E+003.7490649214E+00+
*       9.0000005085E+00               0
GRID*                360               01.5307325692E+003.7490661059E+00+
*       1.0000000086E+01               0
GRID*                361               03.9231424319E+00-7.267953034E-01+
*       2.9999983361E+00               0
GRID*                362               03.9231409487E+00-7.268037918E-01+
*       1.9999995030E+00               0
GRID*                363               04.0000000000E+005.3547225557E-02+
*       2.0000001929E+00               0
GRID*                364               04.0000000000E+005.3547345748E-02+
*       3.0000005757E+00               0
GRID*                365               02.8284368940E+002.8819629232E+00+
*       3.0000003207E+00               0
GRID*                366               02.8284198962E+002.8819809896E+00+
*       1.9999988554E+00               0
GRID*                367               02.2222672405E+003.3794327739E+00+
*       1.9999985728E+00               0
GRID*                368               02.2222573599E+003.3794392681E+00+
*       2.9999976396E+00               0
GRID*                369               0-3.325875437E+002.2758332574E+00+
*       2.0000001829E+00               0
GRID*                370               0-3.325876567E+002.2758317089E+00+
*       9.9999993722E-01               0
GRID*                371               0-3.695518491E+001.5842753420E+00+
*       9.9999939075E-01               0
GRID*                372               0-3.695523241E+001.5842643754E+00+
*       1.9999985572E+00               0
GRID*                373               03.9231399158E+00-7.268097981E-01+
*       1.0000000663E+00               0
GRID*                374               04.0000000000E+005.3547629826E-02+
*       9.9999991314E-01               0
GRID*                375               0-3.695515523E+001.5842821510E+00+
*       -1.195396650E-07               0
GRID*                376               0-3.923139557E+008.3390831835E-01+
*       1.9143950479E-07               0
GRID*                377               0-3.923139926E+008.3390604908E-01+
*       1.0000000676E+00               0
GRID*                378               0-3.325876124E+00-2.168735873E+00+
*       5.9999991354E+00               0
GRID*                379               0-3.325876897E+00-2.168734786E+00+
*       4.9999995543E+00               0
GRID*                380               0-2.828443472E+00-2.774859669E+00+
*       5.0000021660E+00               0
GRID*                381               0-2.828439428E+00-2.774863919E+00+
*       6.0000019596E+00               0
GRID*                382               0-4.000000000E+005.3547620405E-02+
*       9.0000000869E+00               0
GRID*                383               0-4.000000000E+005.3547216136E-02+
*       7.9999998071E+00               0
GRID*                384               0-3.923140947E+00-7.268038011E-01+
*       8.0000004970E+00               0
GRID*                385               0-3.923139914E+00-7.268098073E-01+
*       8.9999999337E+00               0
GRID*                386               03.6955037691E+00-1.477213130E+00+
*       5.0000018046E+00               0
GRID*                387               03.6955114226E+00-1.477195443E+00+
*       4.0000002495E+00               0
GRID*                388               03.9231439616E+00-7.267866838E-01+
*       3.9999975920E+00               0
GRID*                389               03.9231447447E+00-7.267823505E-01+
*       4.9999978997E+00               0
GRID*                390               03.9231397250E+00-7.268111723E-01+
*       1.0000000023E+01               0
GRID*                391               03.9231383452E+00-7.268189764E-01+
*       9.0000005873E+00               0
GRID*                392               04.0000000000E+005.3548634768E-02+
*       9.0000000870E+00               0
GRID*                393               04.0000000000E+005.3548354662E-02+
*       1.0000000119E+01               0
GRID*                394               0-2.222301274E+003.3794104390E+00+
*       2.9999980765E+00               0
GRID*                395               0-2.222295229E+003.3794144093E+00+
*       1.9999983702E+00               0
GRID*                396               0-2.828430537E+002.8819695740E+00+
*       1.9999998060E+00               0
GRID*                397               0-2.828434595E+002.8819652349E+00+
*       2.9999990209E+00               0
GRID*                398               0-2.828419902E+00-2.774884789E+00+
*       1.9999988572E+00               0
GRID*                399               0-2.828421865E+00-2.774882695E+00+
*       9.9999937764E-01               0
GRID*                400               0-2.222276053E+00-3.272330658E+00+
*       9.9999982698E-01               0
GRID*                401               0-2.222267194E+00-3.272336483E+00+
*       1.9999985765E+00               0
GRID*                402               07.8036492901E-013.9766873466E+00+
*       7.9999999081E+00               0
GRID*                403               07.8036840542E-013.9766864999E+00+
*       7.0000004420E+00               0
GRID*                404               02.8094974045E-054.0535455826E+00+
*       7.0000021736E+00               0
GRID*                405               01.7327292521E-054.0535455826E+00+
*       8.0000016343E+00               0
GRID*                406               01.5307280162E+00-3.641971437E+00+
*       6.0000005039E+00               0
GRID*                407               01.5307253458E+00-3.641972428E+00+
*       5.0000011801E+00               0
GRID*                408               02.2222612173E+00-3.272340429E+00+
*       5.0000012074E+00               0
GRID*                409               02.2222526846E+00-3.272346035E+00+
*       6.0000022160E+00               0
GRID*                410               07.8036260225E-013.9766879200E+00+
*       8.9999998162E+00               0
GRID*                411               05.0408714641E-064.0535455826E+00+
*       9.0000004749E+00               0
GRID*                412               07.8038070182E-013.9766836458E+00+
*       4.0000015528E+00               0
GRID*                413               07.8037901057E-013.9766840670E+00+
*       3.0000007758E+00               0
GRID*                414               0-2.810439108E-054.0535455826E+00+
*       2.9999978264E+00               0
GRID*                415               0-2.709201366E-054.0535455826E+00+
*       3.9999981802E+00               0
GRID*                416               06.0009394626E-07-3.946449395E+00+
*       9.9999998064E+00               0
GRID*                417               0-5.041057683E-06-3.946449387E+00+
*       9.0000004757E+00               0
GRID*                418               07.8036256256E-01-3.869591801E+00+
*       1.0000000031E+01               0
GRID*                419               0-3.325878201E+002.2758295093E+00+
*       -1.974683171E-07               0
GRID*                420               0-3.695506945E+00-1.477205712E+00+
*       2.9999978497E+00               0
GRID*                421               0-3.695511226E+00-1.477195797E+00+
*       1.9999990806E+00               0
GRID*                422               0-3.325878281E+00-2.168732904E+00+
*       2.0000003684E+00               0
GRID*                423               0-3.325877913E+00-2.168733403E+00+
*       3.0000004417E+00               0
GRID*                424               0-3.923142430E+00-7.267953126E-01+
*       7.0000016639E+00               0
GRID*                425               0-3.923143960E+00-7.267866930E-01+
*       6.0000024080E+00               0
GRID*                426               0-3.695511419E+00-1.477195452E+00+
*       5.9999997505E+00               0
GRID*                427               0-3.695523287E+00-1.477167990E+00+
*       7.0000015916E+00               0
GRID*                428               02.2222951692E+00-3.272318099E+00+
*       1.9999983674E+00               0
GRID*                429               02.2222844139E+00-3.272325172E+00+
*       9.9999934707E-01               0
GRID*                430               02.8284277997E+00-2.774876326E+00+
*       1.0000001358E+00               0
GRID*                431               02.8284305511E+00-2.774873365E+00+
*       1.9999998045E+00               0
GRID*                432               0-1.530721505E+00-3.641973893E+00+
*       6.9999991966E+00               0
GRID*                433               0-1.530722640E+00-3.641973455E+00+
*       5.9999986746E+00               0
GRID*                434               0-7.803728207E-01-3.869589258E+00+
*       6.0000012422E+00               0
GRID*                435               0-7.803683873E-01-3.869590312E+00+
*       7.0000004417E+00               0
GRID*                436               02.8284267744E+002.8819736142E+00+
*       9.9999998087E+00               0
GRID*                437               02.8284277814E+002.8819725395E+00+
*       8.9999998591E+00               0
GRID*                438               0-3.695511223E+001.5842920734E+00+
*       8.0000009202E+00               0
GRID*                439               0-3.695506940E+001.5843019878E+00+
*       7.0000021512E+00               0
GRID*                440               0-3.923139049E+008.3391132857E-01+
*       7.0000007850E+00               0
GRID*                441               0-3.923136767E+008.3392435360E-01+
*       8.0000013920E+00               0
GRID*                442               03.3258769998E+002.2758310612E+00+
*       4.9999995546E+00               0
GRID*                443               03.3258775463E+002.2758303152E+00+
*       4.0000000455E+00               0
GRID*                444               02.8284439830E+002.8819553601E+00+
*       4.0000014806E+00               0
GRID*                445               02.8284434665E+002.8819558697E+00+
*       5.0000021696E+00               0
GRID*                446               0-3.695503560E+001.5843098411E+00+
*       6.0000024761E+00               0
GRID*                447               0-3.923143743E+008.3388449106E-01+
*       5.9999989043E+00               0
GRID*                448               0-3.695511416E+001.5842917281E+00+
*       4.0000002476E+00               0
GRID*                449               0-3.695523288E+001.5842642674E+00+
*       2.9999984072E+00               0
GRID*                450               0-3.923142442E+008.3389155558E-01+
*       2.9999983354E+00               0
GRID*                451               0-3.923143971E+008.3388293445E-01+
*       3.9999975910E+00               0
GRID*                452               0-7.803775993E-01-3.869588155E+00+
*       5.0000018143E+00               0
GRID*                453               0-7.803806834E-01-3.869587459E+00+
*       4.0000015529E+00               0
GRID*                454               02.7091782513E-05-3.946449387E+00+
*       3.9999981803E+00               0
GRID*                455               04.7022303268E-09-3.946449387E+00+
*       5.0000000000E+00               0
GRID*                456               07.8036839654E-01-3.869590310E+00+
*       2.9999995583E+00               0
GRID*                457               07.8036491951E-01-3.869591156E+00+
*       2.0000000925E+00               0
GRID*                458               01.5307239763E+00-3.641972995E+00+
*       2.0000001738E+00               0
GRID*                459               01.5307215141E+00-3.641973889E+00+
*       3.0000008034E+00               0
GRID*                460               0-3.325875420E+00-2.168736872E+00+
*       6.9999993144E+00               0
GRID*                461               04.0000000000E+005.3548918481E-02+
*       6.9999994242E+00               0
GRID*                462               04.0000000000E+005.3548438405E-02+
*       5.9999995419E+00               0
GRID*                463               03.9231439695E+008.3388294369E-01+
*       6.0000024090E+00               0
GRID*                464               03.9231424397E+008.3389156482E-01+
*       7.0000016646E+00               0
GRID*                465               03.3258779182E+00-2.168733395E+00+
*       6.9999995583E+00               0
GRID*                466               03.3258774491E+00-2.168734031E+00+
*       5.9999999542E+00               0
GRID*                467               03.6955035699E+00-1.477213557E+00+
*       6.0000024756E+00               0
GRID*                468               03.6955069486E+00-1.477205704E+00+
*       7.0000021503E+00               0
GRID*                469               0-3.325878377E+002.2758292469E+00+
*       1.0000000064E+01               0
GRID*                470               0-3.325878452E+002.2758291159E+00+
*       8.9999999735E+00               0
GRID*                471               0-3.695514558E+001.5842843833E+00+
*       8.9999999989E+00               0
GRID*                472               0-3.695515850E+001.5842813623E+00+
*       9.9999997704E+00               0
GRID*                473               0-2.222295161E+00-3.272318105E+00+
*       8.0000016326E+00               0
GRID*                474               0-2.222301204E+00-3.272314131E+00+
*       7.0000019225E+00               0
GRID*                475               0-1.530723968E+00-3.641972999E+00+
*       7.9999998262E+00               0
GRID*                476               0-1.530725416E+003.7490686379E+00+
*       5.0000011767E+00               0
GRID*                477               0-1.530722726E+003.7490696580E+00+
*       4.0000013216E+00               0
GRID*                478               0-2.222290506E+003.3794175097E+00+
*       3.9999989086E+00               0
GRID*                479               0-2.222261263E+003.3794367169E+00+
*       5.0000012002E+00               0
GRID*                480               0-2.222252677E+00-3.272346041E+00+
*       3.9999977840E+00               0
GRID*                481               0-2.222257317E+00-3.272342983E+00+
*       2.9999976423E+00               0
GRID*                482               0-1.530730119E+00-3.641970681E+00+
*       3.0000000417E+00               0
GRID*                483               0-1.530728007E+00-3.641971441E+00+
*       3.9999994961E+00               0
GRID*                484               03.9231367556E+00-7.268281031E-01+
*       8.0000013916E+00               0
GRID*                485               04.0000000000E+005.3549038991E-02+
*       7.9999998072E+00               0
GRID*                486               0-3.923138356E+008.3391522647E-01+
*       9.0000005864E+00               0
GRID*                487               0-2.828434603E+00-2.774869032E+00+
*       7.0000009787E+00               0
GRID*                488               03.9231383544E+008.3391523571E-01+
*       9.9999941364E-01               0
GRID*                489               03.9231397340E+008.3390743037E-01+
*       -2.096965885E-08               0
GRID*                490               03.6955158460E+001.5842813710E+00+
*       2.2955718173E-07               0
GRID*                491               03.6955145540E+001.5842843920E+00+
*       1.0000000011E+00               0
GRID*                492               01.5307227169E+003.7490696616E+00+
*       5.9999986784E+00               0
GRID*                493               01.5307254072E+003.7490686415E+00+
*       4.9999988233E+00               0
GRID*                494               07.8037761748E-013.9766843421E+00+
*       5.0000018143E+00               0
GRID*                495               07.8037283877E-013.9766854461E+00+
*       6.0000012423E+00               0
GRID*                496               02.8284199082E+00-2.774884782E+00+
*       8.0000011428E+00               0
GRID*                497               02.8284369039E+00-2.774866718E+00+
*       6.9999996779E+00               0
GRID*                498               03.3258782866E+00-2.168732897E+00+
*       7.9999996316E+00               0
GRID*                499               0-3.923144743E+00-7.267823598E-01+
*       5.0000021002E+00               0
GRID*                500               0-3.923143731E+00-7.267882512E-01+
*       4.0000010961E+00               0
GRID*                501               0-3.695503566E+00-1.477213566E+00+
*       3.9999975244E+00               0
GRID*                502               0-3.695503766E+00-1.477213138E+00+
*       4.9999981954E+00               0
GRID*                503               02.2222788290E+00-3.272328854E+00+
*       7.7592595360E-08               0
GRID*                504               02.8284268037E+00-2.774877413E+00+
*       1.8319007142E-07               0
GRID*                505               03.9231437333E+00-7.267882420E-01+
*       5.9999989039E+00               0
GRID*                506               04.0000000000E+005.3548131805E-02+
*       5.0000000000E+00               0
GRID*                507               02.8284394350E+00-2.774863912E+00+
*       3.9999980404E+00               0
GRID*                508               02.8284346095E+00-2.774869025E+00+
*       2.9999990213E+00               0
GRID*                509               03.3258754248E+00-2.168736864E+00+
*       3.0000006856E+00               0
GRID*                510               03.3258761296E+00-2.168735865E+00+
*       4.0000008646E+00               0
GRID*                511               03.9231409568E+008.3390005365E-01+
*       8.0000004969E+00               0
GRID*                512               07.8036593325E-013.9766871743E+00+
*       1.9999997056E+00               0
GRID*                513               07.8035554578E-013.9766896311E+00+
*       9.9999931287E-01               0
GRID*                514               0-5.050291310E-064.0535455826E+00+
*       9.9999952507E-01               0
GRID*                515               0-1.733671147E-054.0535455826E+00+
*       1.9999983657E+00               0
GRID*                516               03.6955232369E+001.5842643841E+00+
*       8.0000014428E+00               0
GRID*                517               03.6955232844E+001.5842642761E+00+
*       7.0000015928E+00               0
GRID*                518               03.3258755231E+002.2758331446E+00+
*       6.9999993149E+00               0
GRID*                519               03.3258754320E+002.2758332652E+00+
*       7.9999998171E+00               0
GRID*                520               0-2.222257368E+003.3794392629E+00+
*       7.0000023604E+00               0
GRID*                521               0-2.222252726E+003.3794423177E+00+
*       6.0000022152E+00               0
GRID*                522               0-2.828443990E+002.8819553535E+00+
*       5.9999985194E+00               0
GRID*                523               0-2.828436901E+002.8819629166E+00+
*       6.9999996793E+00               0
GRID*                524               05.9085014376E-074.0535455903E+00+
*       1.9531193640E-07               0
GRID*                525               0-7.803618099E-013.9766881401E+00+
*       6.7301011978E-08               0
GRID*                526               0-7.803626115E-013.9766879182E+00+
*       1.0000001838E+00               0
GRID*                527               0-3.325877552E+002.2758303074E+00+
*       5.9999999545E+00               0
GRID*                528               0-3.325877005E+002.2758310534E+00+
*       5.0000004454E+00               0
GRID*                529               0-3.695503760E+001.5843094136E+00+
*       5.0000018039E+00               0
GRID*                530               02.2223012664E+003.3794104443E+00+
*       7.0000019235E+00               0
GRID*                531               02.2222904981E+003.3794175149E+00+
*       6.0000010914E+00               0
GRID*                532               01.5307215859E+003.7490700970E+00+
*       6.9999991973E+00               0
GRID*                533               07.8037282995E-01-3.869589257E+00+
*       3.9999987578E+00               0
GRID*                534               07.8037760853E-01-3.869588153E+00+
*       4.9999981857E+00               0
GRID*                535               04.0000000000E+005.3547825395E-02+
*       4.0000004580E+00               0
GRID*                536               03.6955184875E+001.5842753507E+00+
*       9.0000006092E+00               0
GRID*                537               03.3258765614E+002.2758317167E+00+
*       9.0000000628E+00               0
GRID*                538               01.5307318478E+003.7490663021E+00+
*       2.0000003113E+00               0
GRID*                539               01.5307301861E+003.7490668927E+00+
*       3.0000000399E+00               0
GRID*                540               0-3.923140959E+008.3390004441E-01+
*       1.9999995031E+00               0
GRID*                541               0-1.732730396E-05-3.946449387E+00+
*       8.0000016340E+00               0
GRID*                542               02.2222952208E+003.3794144145E+00+
*       8.0000016298E+00               0
GRID*                543               01.5307240472E+003.7490692046E+00+
*       7.9999998256E+00               0
GRID*                544               0-4.000000000E+005.3548345240E-02+
*       -1.189028393E-07               0
GRID*                545               0-4.000000000E+005.3548625347E-02+
*       9.9999991302E-01               0
GRID*                546               0-2.222261209E+00-3.272340434E+00+
*       4.9999987926E+00               0
GRID*                547               0-2.222290440E+00-3.272321208E+00+
*       6.0000010838E+00               0
GRID*                548               03.9231437416E+008.3388450030E-01+
*       4.0000010957E+00               0
GRID*                549               03.9231390474E+008.3391133780E-01+
*       2.9999992150E+00               0
GRID*                550               03.6955069367E+001.5843019965E+00+
*       2.9999978488E+00               0
GRID*                551               03.6955035568E+001.5843098498E+00+
*       3.9999975239E+00               0
GRID*                552               03.6955158626E+00-1.477185078E+00+
*       9.9999997745E+00               0
GRID*                553               03.6955145632E+00-1.477188098E+00+
*       9.0000000006E+00               0
GRID*                554               0-3.325875528E+002.2758331367E+00+
*       3.0000006851E+00               0
GRID*                555               0-1.530732790E+00-3.641969738E+00+
*       1.0000001592E+00               0
GRID*                556               0-1.530731778E+00-3.641970091E+00+
*       2.0000003136E+00               0
GRID*                557               0-7.803790198E-013.9766840651E+00+
*       6.9999992242E+00               0
GRID*                558               0-7.803659425E-013.9766871724E+00+
*       8.0000002944E+00               0
GRID*                559               02.8284434791E+00-2.774859662E+00+
*       4.9999978340E+00               0
GRID*                560               02.8284439924E+00-2.774859155E+00+
*       5.9999985198E+00               0
GRID*                561               0-1.530725337E+00-3.641972432E+00+
*       4.9999988199E+00               0
GRID*                562               0-7.803684147E-013.9766864981E+00+
*       2.9999995580E+00               0
GRID*                563               0-7.803728480E-013.9766854442E+00+
*       3.9999987577E+00               0
GRID*                564               0-7.803617808E-01-3.869591957E+00+
*       9.9999999344E+00               0
GRID*                565               0-7.803625827E-01-3.869591732E+00+
*       8.9999998166E+00               0
GRID*                566               0-2.828436897E+00-2.774866725E+00+
*       3.0000003221E+00               0
GRID*                567               0-3.923139545E+00-7.268120784E-01+
*       9.9999998108E+00               0
GRID*                568               0-3.695518491E+00-1.477179065E+00+
*       9.0000006119E+00               0
GRID*                569               0-3.695515532E+00-1.477185876E+00+
*       1.0000000124E+01               0
GRID*                570               03.3258764622E+00-2.168735436E+00+
*       9.9999993399E-01               0
GRID*                571               03.3258753336E+00-2.168736985E+00+
*       2.0000001828E+00               0
GRID*                572               0-2.708236988E-05-3.946449387E+00+
*       6.0000018197E+00               0
GRID*                573               0-2.809472601E-05-3.946449387E+00+
*       7.0000021734E+00               0
GRID*                574               0-4.000000000E+005.3547336327E-02+
*       6.9999994243E+00               0
GRID*                575               02.2222527181E+003.3794423229E+00+
*       3.9999977848E+00               0
GRID*                576               02.2222612549E+003.3794367222E+00+
*       4.9999987998E+00               0
GRID*                577               0-2.828443473E+002.8819558631E+00+
*       4.9999978304E+00               0
GRID*                578               0-2.828439424E+002.8819601189E+00+
*       3.9999980366E+00               0
GRID*                579               0-3.325876232E+002.2758321393E+00+
*       4.0000008638E+00               0
GRID*                580               0-3.325876457E+00-2.168735444E+00+
*       9.0000000660E+00               0
GRID*                581               0-3.325878092E+00-2.168733244E+00+
*       1.0000000204E+01               0
GRID*                582               0-4.000000000E+005.3548909061E-02+
*       3.0000005758E+00               0
GRID*                583               0-4.000000000E+005.3548428984E-02+
*       4.0000004581E+00               0
GRID*                584               0-4.000000000E+005.3547815975E-02+
*       5.9999995420E+00               0
GRID*                585               02.2223012117E+00-3.272314126E+00+
*       2.9999980775E+00               0
GRID*                586               0-2.222284406E+00-3.272325177E+00+
*       9.0000006529E+00               0
GRID*                587               0-1.530735710E+00-3.641968712E+00+
*       9.0000005090E+00               0
GRID*                588               03.9231447527E+008.3387860910E-01+
*       5.0000021006E+00               0
GRID*                589               03.9231390383E+00-7.268150788E-01+
*       7.0000007844E+00               0
GRID*                590               0-3.325878390E+002.2758291719E+00+
*       7.9999996321E+00               0
GRID*                591               0-3.325878021E+002.2758296705E+00+
*       6.9999995588E+00               0
GRID*                592               0-7.803649103E-01-3.869591158E+00+
*       7.9999999075E+00               0
GRID*                593               0-7.803789918E-01-3.869587880E+00+
*       3.0000007762E+00               0
GRID*                594               0-2.828421863E+002.8819788920E+00+
*       9.0000006200E+00               0
GRID*                595               0-2.828419903E+002.8819809829E+00+
*       8.0000011446E+00               0
GRID*                596               03.3258783716E+002.2758292547E+00+
*       -6.420178991E-08               0
GRID*                597               03.3258784463E+002.2758291237E+00+
*       1.0000000265E+00               0
GRID*                598               0-4.702474181E-094.0535455826E+00+
*       5.0000000000E+00               0
GRID*                599               02.7082600611E-054.0535455826E+00+
*       6.0000018198E+00               0
GRID*                600               03.6955112294E+00-1.477195789E+00+
*       8.0000009194E+00               0
GRID*                601               0-1.530733147E+003.7490658665E+00+
*       1.0000000027E+01               0
GRID*                602               0-1.530732873E+003.7490659448E+00+
*       8.9999998427E+00               0
GRID*                603               0-2.222276110E+003.3794269510E+00+
*       9.0000001749E+00               0
GRID*                604               0-2.222279781E+003.3794245589E+00+
*       9.9999997702E+00               0
GRID*                605               03.3258780974E+00-2.168733236E+00+
*       -2.037840484E-07               0
GRID*                606               03.6955232903E+00-1.477167981E+00+
*       2.9999984084E+00               0
GRID*                607               0-7.803649382E-013.9766873448E+00+
*       2.0000000919E+00               0
GRID*                608               07.8037900103E-01-3.869587878E+00+
*       6.9999992238E+00               0
GRID*                609               01.5307301276E+00-3.641970677E+00+
*       6.9999999583E+00               0
GRID*                610               0-1.530732578E+003.7490661023E+00+
*       -8.569191065E-08               0
GRID*                611               0-1.530735797E+003.7490649178E+00+
*       9.9999949151E-01               0
GRID*                612               0-3.923144755E+008.3387859986E-01+
*       4.9999978994E+00               0
GRID*                613               03.3258781963E+002.2758295172E+00+
*       1.0000000197E+01               0
GRID*                614               0-4.000000000E+005.3549029571E-02+
*       2.0000001928E+00               0
GRID*                615               0-3.923139723E+00-7.268111816E-01+
*       -2.300523652E-08               0
GRID*                616               0-3.923138343E+00-7.268189857E-01+
*       9.9999941272E-01               0
GRID*                617               03.3258780159E+002.2758296783E+00+
*       3.0000004412E+00               0
GRID*                618               03.3258782730E+00-2.168732973E+00+
*       1.0000000071E+01               0
GRID*                619               03.3258783468E+00-2.168732842E+00+
*       8.9999999765E+00               0
GRID*                620               0-7.803555261E-01-3.869593442E+00+
*       9.9999931224E-01               0
GRID*                621               0-7.803659140E-01-3.869590986E+00+
*       1.9999997062E+00               0
GRID*                622               0-1.530730195E+003.7490668891E+00+
*       6.9999999601E+00               0
GRID*                623               0-1.530731857E+003.7490662985E+00+
*       7.9999996887E+00               0
GRID*                624               03.3258769026E+00-2.168734778E+00+
*       5.0000004457E+00               0
GRID*                625               0-1.530721595E+003.7490700934E+00+
*       3.0000008027E+00               0
GRID*                626               0-3.695523239E+00-1.477168098E+00+
*       8.0000014432E+00               0
GRID*                627               03.6955184950E+00-1.477179056E+00+
*       9.9999938812E-01               0
GRID*                628               03.6955232428E+00-1.477168089E+00+
*       1.9999985568E+00               0
GRID*                629               07.8038069262E-01-3.869587457E+00+
*       5.9999984471E+00               0
GRID*                630               01.5307280739E+003.7490676527E+00+
*       3.9999994963E+00               0
GRID*                631               0-3.923139036E+00-7.268150881E-01+
*       2.9999992156E+00               0
GRID*                632               0-2.222267248E+003.3794327687E+00+
*       8.0000014272E+00               0
GRID*                633               03.6955037562E+001.5843094223E+00+
*       4.9999981961E+00               0
GRID*                634               03.6955114125E+001.5842917368E+00+
*       5.9999997524E+00               0
GRID*                635               0-2.828427362E+002.8819730264E+00+
*       1.0000000007E+01               0
GRID*                636               0-1.530733064E+00-3.641969660E+00+
*       -2.544344888E-08               0
GRID*                637               0-7.803625533E-01-3.869591803E+00+
*       -3.054379920E-08               0
GRID*                638               0-3.923139736E+008.3390742113E-01+
*       1.0000000021E+01               0
GRID*                639               0-4.000000000E+005.3547900473E-02+
*       1.0000000119E+01               0
GRID*                640               02.8104142682E-05-3.946449387E+00+
*       2.9999978266E+00               0
GRID*                641               03.9231399243E+008.3390605832E-01+
*       8.9999999324E+00               0
GRID*                642               02.8284273556E+002.8819730331E+00+
*       -6.653276799E-09               0
GRID*                643               02.8284218566E+002.8819788987E+00+
*       9.9999938004E-01               0
GRID*                644               0-7.803776267E-013.9766843402E+00+
*       4.9999981857E+00               0
GRID*                645               0-7.803807111E-013.9766836439E+00+
*       5.9999984472E+00               0
GRID*                646               0-2.828427793E+00-2.774876333E+00+
*       8.9999998642E+00               0
GRID*                647               0-2.828430544E+00-2.774873372E+00+
*       8.0000001955E+00               0
GRID*                648               0-3.325877444E+00-2.168734039E+00+
*       4.0000000458E+00               0
GRID*                649               0-2.828443986E+00-2.774859162E+00+
*       4.0000014802E+00               0
GRID*                650               03.6955155359E+00-1.477185867E+00+
*       -1.240786921E-07               0
GRID*                651               0-1.530724056E+003.7490692009E+00+
*       2.0000001744E+00               0
GRID*                652               0-2.222278873E+003.3794251654E+00+
*       8.1377673024E-08               0
GRID*                653               0-2.222284467E+003.3794214765E+00+
*       9.9999935066E-01               0
GRID*                654               0-4.000000000E+005.3548122385E-02+
*       5.0000000000E+00               0
GRID*                655               01.5307226489E+00-3.641973452E+00+
*       4.0000013254E+00               0
GRID*                656               02.2222904481E+00-3.272321203E+00+
*       3.9999989162E+00               0
GRID*                657               02.2222672017E+00-3.272336477E+00+
*       8.0000014235E+00               0
GRID*                658               02.2222760610E+00-3.272330653E+00+
*       9.0000001730E+00               0
GRID*                659               0-3.923136754E+00-7.268281123E-01+
*       1.9999986084E+00               0
GRID*                660               0-3.695515859E+00-1.477185087E+00+
*       2.2551988474E-07               0
GRID*                661               0-3.695514560E+00-1.477188107E+00+
*       9.9999999936E-01               0
GRID*                662               02.8284273833E+00-2.774876834E+00+
*       1.0000000013E+01               0
GRID*                663               02.8284218713E+00-2.774882689E+00+
*       9.0000006224E+00               0
GRID*                664               05.0504770500E-06-3.946449387E+00+
*       9.9999952434E-01               0
GRID*                665               01.7336722571E-05-3.946449387E+00+
*       1.9999983660E+00               0
GRID*                666               0-1.530728083E+003.7490676491E+00+
*       6.0000005037E+00               0
GRID*                667               0-7.803555550E-013.9766896293E+00+
*       9.0000006871E+00               0
GRID*                668               03.3258762272E+002.2758321471E+00+
*       5.9999991362E+00               0
GRID*                669               0-5.906715780E-07-3.946449395E+00+
*       1.9356650620E-07               0
GRID*                670               03.3258783849E+002.2758291797E+00+
*       2.0000003679E+00               0
GRID*                671               02.2222797729E+003.3794245641E+00+
*       2.2978542227E-07               0
GRID*                672               02.2222761019E+003.3794269562E+00+
*       9.9999982514E-01               0
GRID*                673               0-6.002724583E-074.0535455903E+00+
*       9.9999998047E+00               0
GRID*                674               0-7.803625822E-013.9766879865E+00+
*       1.0000000029E+01               0
GRID*                675               03.9231395466E+00-7.268120691E-01+
*       1.8915724182E-07               0
GRID*                676               03.9231367650E+008.3392436283E-01+
*       1.9999986080E+00               0
GRID*                677               03.6955112190E+001.5842920821E+00+
*       1.9999990798E+00               0
GRID*                678               02.8284345883E+002.8819652416E+00+
*       7.0000009791E+00               0
GRID*                679               02.8284394170E+002.8819601256E+00+
*       6.0000019634E+00               0
GRID*                680               0-2.828426781E+002.8819736075E+00+
*       1.9133973533E-07               0
GRID*                681               0-2.828427788E+002.8819725329E+00+
*       1.0000001409E+00               0
GRID*                682               03.9231395556E+008.3390832759E-01+
*       9.9999998086E+00               0
GRID*                683               03.6955155193E+001.5842821597E+00+
*       1.0000000120E+01               0
GRID*                684               0-3.325878268E+00-2.168732981E+00+
*       -7.061673890E-08               0
GRID*                685               0-3.325878342E+00-2.168732850E+00+
*       1.0000000235E+00               0
GRID*                686               02.8284305308E+002.8819695806E+00+
*       8.0000001940E+00               0
GRID*                687               02.2222797365E+00-3.272328247E+00+
*       9.9999997701E+00               0
GRID*                688               0-2.222278821E+00-3.272328859E+00+
*       9.9999999224E+00               0
GRID*                689               0-1.530732493E+00-3.641969896E+00+
*       1.0000000086E+01               0
GRID*                690               07.8036259194E-01-3.869591730E+00+
*       1.0000001834E+00               0
GRID*                691               0-2.828426797E+00-2.774877420E+00+
*       9.9999998168E+00               0
GRID*                692               02.2222573248E+00-3.272342978E+00+
*       7.0000023577E+00               0
GRID*                693               0-3.325875328E+00-2.168736993E+00+
*       7.9999998172E+00               0
GRID*                694               0-2.222279729E+00-3.272328253E+00+
*       2.2991620455E-07               0
GRID*                695               07.8036179001E-01-3.869591955E+00+
*       6.5610532169E-08               0
GRID*                696               01.5307331385E+003.7490658701E+00+
*       -2.697188696E-08               0
GRID*                697               01.5307328641E+003.7490659484E+00+
*       1.0000001573E+00               0
GRID*                698               07.8036180062E-013.9766881420E+00+
*       9.9999999327E+00               0
GRID*                699               04.0000000000E+005.3547909896E-02+
*       -1.188133092E-07               0
GRID*                700               0-2.828427377E+00-2.774876840E+00+
*       -1.323278913E-08               0
GRID*                701               01.5307330726E+00-3.641969656E+00+
*       1.0000000025E+01               0
GRID*                702               01.5307357185E+00-3.641968708E+00+
*       9.9999949096E-01               0
GRID*                703               01.5307325014E+00-3.641969893E+00+
*       -8.631291592E-08               0
GRID*                704               07.8036257293E-013.9766879883E+00+
*       -2.874603980E-08               0
GRID*                705               08.2912770744E-01-4.114789842E+00+
*       9.0000006223E+00               0
GRID*                706               08.2913812519E-01-4.114787380E+00+
*       8.0000001704E+00               0
GRID*                707               01.6264026178E+00-3.872939981E+00+
*       7.9999997932E+00               0
GRID*                708               01.6264037182E+00-3.872939592E+00+
*       8.9999998881E+00               0
GRID*                709               02.3611716228E+003.5872924405E+00+
*       9.9999999390E+00               0
GRID*                710               02.3611773146E+003.5872886860E+00+
*       9.0000005905E+00               0
GRID*                711               01.6264068964E+003.9800347010E+00+
*       9.0000004310E+00               0
GRID*                712               01.6264036659E+003.9800358902E+00+
*       1.0000000064E+01               0
GRID*                713               04.1683388259E+00-7.755675123E-01+
*       2.9999984706E+00               0
GRID*                714               04.1683373140E+00-7.755761454E-01+
*       1.9999994786E+00               0
GRID*                715               04.2500000000E+005.3547451021E-02+
*       2.0000001446E+00               0
GRID*                716               04.2500000000E+005.3547541164E-02+
*       3.0000004317E+00               0
GRID*                717               03.0052133010E+003.0587399068E+00+
*       3.0000004441E+00               0
GRID*                718               03.0051961385E+003.0587581378E+00+
*       1.9999989734E+00               0
GRID*                719               02.3611594452E+003.5873004132E+00+
*       1.9999986898E+00               0
GRID*                720               02.3611495238E+003.5873069347E+00+
*       2.9999978162E+00               0
GRID*                721               0-3.533742994E+002.4147255859E+00+
*       2.0000001966E+00               0
GRID*                722               0-3.533744068E+002.4147241193E+00+
*       9.9999999032E-01               0
GRID*                723               0-3.926488558E+001.6799457576E+00+
*       9.9999942817E-01               0
GRID*                724               0-3.926493418E+001.6799345219E+00+
*       1.9999986133E+00               0
GRID*                725               04.1683362245E+00-7.755824358E-01+
*       1.0000000063E+00               0
GRID*                726               04.2500000000E+005.3547754222E-02+
*       9.9999993485E-01               0
GRID*                727               0-3.926485531E+001.6799527068E+00+
*       -8.965474875E-08               0
GRID*                728               0-4.168335839E+008.8268109166E-01+
*       1.4357962859E-07               0
GRID*                729               0-4.168336235E+008.8267868541E-01+
*       1.0000000073E+00               0
GRID*                730               0-3.533743600E+00-2.307628322E+00+
*       5.9999993033E+00               0
GRID*                731               0-3.533744293E+00-2.307627355E+00+
*       4.9999996284E+00               0
GRID*                732               0-3.005220226E+00-2.951636306E+00+
*       5.0000019949E+00               0
GRID*                733               0-3.005216340E+00-2.951640398E+00+
*       6.0000017680E+00               0
GRID*                734               0-4.250000000E+005.3547744213E-02+
*       9.0000000651E+00               0
GRID*                735               0-4.250000000E+005.3547441012E-02+
*       7.9999998554E+00               0
GRID*                736               0-4.168337312E+00-7.755761552E-01+
*       8.0000005214E+00               0
GRID*                737               0-4.168336223E+00-7.755824457E-01+
*       8.9999999937E+00               0
GRID*                738               03.9264736321E+00-1.572884036E+00+
*       5.0000018039E+00               0
GRID*                739               03.9264814475E+00-1.572865959E+00+
*       4.0000003349E+00               0
GRID*                740               04.1683403328E+00-7.755590077E-01+
*       3.9999977933E+00               0
GRID*                741               04.1683410735E+00-7.755548875E-01+
*       4.9999979737E+00               0
GRID*                742               04.1683359619E+00-7.755841709E-01+
*       1.0000000017E+01               0
GRID*                743               04.1683345501E+00-7.755921364E-01+
*       9.0000005648E+00               0
GRID*                744               04.2500000000E+005.3548507929E-02+
*       9.0000000652E+00               0
GRID*                745               04.2500000000E+005.3548297850E-02+
*       1.0000000089E+01               0
GRID*                746               0-2.361194425E+003.5872774461E+00+
*       2.9999981431E+00               0
GRID*                747               0-2.361188278E+003.5872814842E+00+
*       1.9999984748E+00               0
GRID*                748               0-3.005207320E+003.0587461817E+00+
*       1.9999997545E+00               0
GRID*                749               0-3.005211526E+003.0587416940E+00+
*       2.9999990676E+00               0
GRID*                750               0-3.005196147E+00-2.951661934E+00+
*       1.9999989748E+00               0
GRID*                751               0-3.005198158E+00-2.951659793E+00+
*       9.9999941091E-01               0
GRID*                752               0-2.361168446E+00-3.480198172E+00+
*       9.9999979703E-01               0
GRID*                753               0-2.361159394E+00-3.480204125E+00+
*       1.9999986925E+00               0
GRID*                754               08.2913756057E-014.2218836566E+00+
*       7.9999999931E+00               0
GRID*                755               08.2914121163E-014.2218827751E+00+
*       7.0000004553E+00               0
GRID*                756               02.8675378000E-054.3035455826E+00+
*       7.0000020674E+00               0
GRID*                757               01.7800350671E-054.3035455826E+00+
*       8.0000014998E+00               0
GRID*                758               01.6263987125E+00-3.872941387E+00+
*       6.0000004727E+00               0
GRID*                759               01.6263961228E+00-3.872942345E+00+
*       5.0000010161E+00               0
GRID*                760               02.3611537222E+00-3.480207868E+00+
*       5.0000012274E+00               0
GRID*                761               02.3611449167E+00-3.480213656E+00+
*       6.0000021505E+00               0
GRID*                762               08.2913507186E-014.2218842622E+00+
*       8.9999998799E+00               0
GRID*                763               05.3128422321E-064.3035455826E+00+
*       9.0000004414E+00               0
GRID*                764               08.2915317901E-014.2218799864E+00+
*       4.0000014506E+00               0
GRID*                765               08.2915134041E-014.2218804369E+00+
*       3.0000008338E+00               0
GRID*                766               0-2.868538369E-054.3035455826E+00+
*       2.9999979326E+00               0
GRID*                767               0-2.755048157E-054.3035455826E+00+
*       3.9999982181E+00               0
GRID*                768               04.5154267029E-07-4.196449395E+00+
*       9.9999998548E+00               0
GRID*                769               0-5.312981781E-06-4.196449387E+00+
*       9.0000004419E+00               0
GRID*                770               08.2913477598E-01-4.114788194E+00+
*       1.0000000023E+01               0
GRID*                771               0-3.533745678E+002.4147219578E+00+
*       -1.481012378E-07               0
GRID*                772               0-3.926476669E+00-1.572876954E+00+
*       2.9999980334E+00               0
GRID*                773               0-3.926480982E+00-1.572866963E+00+
*       1.9999991175E+00               0
GRID*                774               0-3.533745638E+00-2.307625532E+00+
*       2.0000002686E+00               0
GRID*                775               0-3.533745276E+00-2.307626021E+00+
*       3.0000003153E+00               0
GRID*                776               0-4.168338824E+00-7.755675221E-01+
*       7.0000015294E+00               0
GRID*                777               0-4.168340331E+00-7.755590175E-01+
*       6.0000022067E+00               0
GRID*                778               0-3.926481444E+00-1.572865968E+00+
*       5.9999996651E+00               0
GRID*                779               0-3.926493465E+00-1.572838135E+00+
*       7.0000015012E+00               0
GRID*                780               02.3611882143E+00-3.480185177E+00+
*       1.9999984727E+00               0
GRID*                781               02.3611772654E+00-3.480192379E+00+
*       9.9999940678E-01               0
GRID*                782               03.0052044057E+00-2.951653111E+00+
*       1.0000000745E+00               0
GRID*                783               03.0052073348E+00-2.951649972E+00+
*       1.9999997533E+00               0
GRID*                784               0-1.626392594E+00-3.872943680E+00+
*       6.9999992266E+00               0
GRID*                785               0-1.626393613E+00-3.872943291E+00+
*       5.9999988455E+00               0
GRID*                786               0-8.291456800E-01-4.114785523E+00+
*       6.0000011238E+00               0
GRID*                787               0-8.291411984E-01-4.114786586E+00+
*       7.0000004551E+00               0
GRID*                788               03.0052033026E+003.0587504766E+00+
*       9.9999998565E+00               0
GRID*                789               03.0052043857E+003.0587493258E+00+
*       8.9999999217E+00               0
GRID*                790               0-3.926480983E+001.6799632270E+00+
*       8.0000008831E+00               0
GRID*                791               0-3.926476669E+001.6799732176E+00+
*       7.0000019673E+00               0
GRID*                792               0-4.168335241E+008.8268455456E-01+
*       7.0000006589E+00               0
GRID*                793               0-4.168332930E+008.8269772357E-01+
*       8.0000013142E+00               0
GRID*                794               03.5337443926E+002.4147236348E+00+
*       4.9999996285E+00               0
GRID*                795               03.5337449180E+002.4147229204E+00+
*       4.0000000079E+00               0
GRID*                796               03.0052205764E+003.0587321573E+00+
*       4.0000014788E+00               0
GRID*                797               03.0052202173E+003.0587325096E+00+
*       5.0000019976E+00               0
GRID*                798               0-3.926473338E+001.6799809544E+00+
*       6.0000023275E+00               0
GRID*                799               0-4.168340013E+008.8265732561E-01+
*       5.9999988315E+00               0
GRID*                800               0-3.926481446E+001.6799622328E+00+
*       4.0000003335E+00               0
GRID*                801               0-3.926493471E+001.6799344009E+00+
*       2.9999984980E+00               0
GRID*                802               0-4.168338836E+008.8266376277E-01+
*       2.9999984701E+00               0
GRID*                803               0-4.168340343E+008.8265525696E-01+
*       3.9999977926E+00               0
GRID*                804               0-8.291502958E-01-4.114784452E+00+
*       5.0000016140E+00               0
GRID*                805               0-8.291531656E-01-4.114783798E+00+
*       4.0000014507E+00               0
GRID*                806               02.7550308099E-05-4.196449387E+00+
*       3.9999982181E+00               0
GRID*                807               04.9964778949E-09-4.196449387E+00+
*       5.0000000000E+00               0
GRID*                808               08.2914120823E-01-4.114786584E+00+
*       2.9999995449E+00               0
GRID*                809               08.2913755669E-01-4.114787465E+00+
*       2.0000000074E+00               0
GRID*                810               01.6263950942E+00-3.872942771E+00+
*       2.0000002616E+00               0
GRID*                811               01.6263926037E+00-3.872943676E+00+
*       3.0000007734E+00               0
GRID*                812               0-3.533742981E+00-2.307629193E+00+
*       6.9999994288E+00               0
GRID*                813               04.2500000000E+005.3548720714E-02+
*       6.9999995682E+00               0
GRID*                814               04.2500000000E+005.3548360657E-02+
*       5.9999996564E+00               0
GRID*                815               04.1683403408E+008.8265526678E-01+
*       6.0000022074E+00               0
GRID*                816               04.1683388339E+008.8266377259E-01+
*       7.0000015299E+00               0
GRID*                817               03.5337452813E+00-2.307626013E+00+
*       6.9999996847E+00               0
GRID*                818               03.5337448237E+00-2.307626632E+00+
*       5.9999999919E+00               0
GRID*                819               03.9264733427E+00-1.572884682E+00+
*       6.0000023272E+00               0
GRID*                820               03.9264766733E+00-1.572876945E+00+
*       7.0000019666E+00               0
GRID*                821               0-3.533745809E+002.4147217609E+00+
*       1.0000000048E+01               0
GRID*                822               0-3.533745848E+002.4147216838E+00+
*       8.9999999823E+00               0
GRID*                823               0-3.926484424E+001.6799552814E+00+
*       9.0000000553E+00               0
GRID*                824               0-3.926485776E+001.6799521153E+00+
*       9.9999998278E+00               0
GRID*                825               0-2.361188206E+00-3.480185183E+00+
*       8.0000015273E+00               0
GRID*                826               0-2.361194350E+00-3.480181141E+00+
*       7.0000018562E+00               0
GRID*                827               0-1.626395085E+00-3.872942775E+00+
*       7.9999997384E+00               0
GRID*                828               0-1.626396180E+003.9800385599E+00+
*       5.0000010135E+00               0
GRID*                829               0-1.626393685E+003.9800394993E+00+
*       4.0000011516E+00               0
GRID*                830               0-2.361183449E+003.5872846556E+00+
*       3.9999989677E+00               0
GRID*                831               0-2.361153772E+003.5873041528E+00+
*       5.0000012220E+00               0
GRID*                832               0-2.361144908E+00-3.480213662E+00+
*       3.9999978495E+00               0
GRID*                833               0-2.361149477E+00-3.480210652E+00+
*       2.9999978183E+00               0
GRID*                834               0-1.626400869E+00-3.872940608E+00+
*       2.9999999724E+00               0
GRID*                835               0-1.626398703E+00-3.872941391E+00+
*       3.9999995273E+00               0
GRID*                836               04.1683329185E+00-7.756014744E-01+
*       8.0000013139E+00               0
GRID*                837               04.2500000000E+005.3548811097E-02+
*       7.9999998554E+00               0
GRID*                838               0-4.168334561E+008.8268838529E-01+
*       9.0000005641E+00               0
GRID*                839               0-3.005211534E+00-2.951645491E+00+
*       7.0000009321E+00               0
GRID*                840               04.1683345593E+008.8268839510E-01+
*       9.9999943592E-01               0
GRID*                841               04.1683359711E+008.8268042856E-01+
*       -1.572724414E-08               0
GRID*                842               03.9264857724E+001.6799521246E+00+
*       1.7216788630E-07               0
GRID*                843               03.9264844203E+001.6799552907E+00+
*       9.9999994473E-01               0
GRID*                844               01.6263936756E+003.9800395031E+00+
*       5.9999988484E+00               0
GRID*                845               01.6263961708E+003.9800385638E+00+
*       4.9999989865E+00               0
GRID*                846               08.2915030907E-014.2218806401E+00+
*       5.0000016140E+00               0
GRID*                847               08.2914569319E-014.2218817117E+00+
*       6.0000011239E+00               0
GRID*                848               03.0051961538E+00-2.951661927E+00+
*       8.0000010252E+00               0
GRID*                849               03.0052133147E+00-2.951643698E+00+
*       6.9999995549E+00               0
GRID*                850               03.5337456437E+00-2.307625524E+00+
*       7.9999997314E+00               0
GRID*                851               0-4.168341072E+00-7.755548973E-01+
*       5.0000020263E+00               0
GRID*                852               0-4.168340001E+00-7.755610873E-01+
*       4.0000011688E+00               0
GRID*                853               0-3.926473339E+00-1.572884691E+00+
*       3.9999976728E+00               0
GRID*                854               0-3.926473628E+00-1.572884046E+00+
*       4.9999981961E+00               0
GRID*                855               02.3611715818E+00-3.480196127E+00+
*       5.8194446520E-08               0
GRID*                856               03.0052033338E+00-2.951654274E+00+
*       1.3739255356E-07               0
GRID*                857               04.1683400027E+00-7.755610775E-01+
*       5.9999988312E+00               0
GRID*                858               04.2500000000E+005.3548130707E-02+
*       5.0000000000E+00               0
GRID*                859               03.0052163474E+00-2.951640391E+00+
*       3.9999982320E+00               0
GRID*                860               03.0052115416E+00-2.951645484E+00+
*       2.9999990679E+00               0
GRID*                861               03.5337429868E+00-2.307629184E+00+
*       3.0000005712E+00               0
GRID*                862               03.5337436060E+00-2.307628314E+00+
*       4.0000006967E+00               0
GRID*                863               04.1683373223E+008.8267240596E-01+
*       8.0000005213E+00               0
GRID*                864               08.2913812949E-014.2218835708E+00+
*       1.9999998291E+00               0
GRID*                865               08.2912771209E-014.2218860336E+00+
*       9.9999937818E-01               0
GRID*                866               0-5.322850851E-064.3035455826E+00+
*       9.9999955862E-01               0
GRID*                867               0-1.781035830E-054.3035455826E+00+
*       1.9999985002E+00               0
GRID*                868               03.9264934146E+001.6799345312E+00+
*       8.0000013867E+00               0
GRID*                869               03.9264934674E+001.6799344102E+00+
*       7.0000015020E+00               0
GRID*                870               03.5337430817E+002.4147254700E+00+
*       6.9999994292E+00               0
GRID*                871               03.5337429883E+002.4147255942E+00+
*       7.9999998034E+00               0
GRID*                872               0-2.361149532E+003.5873069291E+00+
*       7.0000021838E+00               0
GRID*                873               0-2.361144962E+003.5873099358E+00+
*       6.0000021499E+00               0
GRID*                874               0-3.005220583E+003.0587321502E+00+
*       5.9999985212E+00               0
GRID*                875               0-3.005213308E+003.0587398998E+00+
*       6.9999995559E+00               0
GRID*                876               04.4166539653E-074.3035455903E+00+
*       1.4648395230E-07               0
GRID*                877               0-8.291342111E-014.2218844959E+00+
*       5.0475758983E-08               0
GRID*                878               0-8.291350817E-014.2218842602E+00+
*       1.0000001201E+00               0
GRID*                879               0-3.533744924E+002.4147229121E+00+
*       5.9999999921E+00               0
GRID*                880               0-3.533744398E+002.4147236265E+00+
*       5.0000003715E+00               0
GRID*                881               0-3.926473627E+001.6799803091E+00+
*       5.0000018034E+00               0
GRID*                882               02.3611944168E+003.5872774517E+00+
*       7.0000018569E+00               0
GRID*                883               02.3611834407E+003.5872846612E+00+
*       6.0000010323E+00               0
GRID*                884               01.6263926595E+003.9800398909E+00+
*       6.9999992271E+00               0
GRID*                885               08.2914568986E-01-4.114785521E+00+
*       3.9999988762E+00               0
GRID*                886               08.2915030566E-01-4.114784450E+00+
*       4.9999983860E+00               0
GRID*                887               04.2500000000E+005.3547900900E-02+
*       4.0000003435E+00               0
GRID*                888               03.9264885537E+001.6799457669E+00+
*       9.0000005718E+00               0
GRID*                889               03.5337440629E+002.4147241277E+00+
*       9.0000000097E+00               0
GRID*                890               01.6264026658E+003.9800362018E+00+
*       2.0000002051E+00               0
GRID*                891               01.6264009241E+003.9800368255E+00+
*       2.9999999710E+00               0
GRID*                892               0-4.168337324E+008.8267239614E-01+
*       1.9999994787E+00               0
GRID*                893               0-1.780035915E-05-4.196449387E+00+
*       8.0000014996E+00               0
GRID*                894               02.3611882697E+003.5872814898E+00+
*       8.0000015252E+00               0
GRID*                895               01.6263951493E+003.9800389866E+00+
*       7.9999997379E+00               0
GRID*                896               0-4.250000000E+005.3548287839E-02+
*       -8.917712948E-08               0
GRID*                897               0-4.250000000E+005.3548497920E-02+
*       9.9999993477E-01               0
GRID*                898               0-2.361153714E+00-3.480207873E+00+
*       4.9999987726E+00               0
GRID*                899               0-2.361183379E+00-3.480188357E+00+
*       6.0000010266E+00               0
GRID*                900               04.1683400111E+008.8265733542E-01+
*       4.0000011685E+00               0
GRID*                901               04.1683352390E+008.8268456437E-01+
*       2.9999993411E+00               0
GRID*                902               03.9264766656E+001.6799732268E+00+
*       2.9999980327E+00               0
GRID*                903               03.9264733340E+001.6799809636E+00+
*       3.9999976725E+00               0
GRID*                904               03.9264857848E+00-1.572855842E+00+
*       9.9999998309E+00               0
GRID*                905               03.9264844252E+00-1.572859007E+00+
*       9.0000000565E+00               0
GRID*                906               0-3.533743087E+002.4147254617E+00+
*       3.0000005708E+00               0
GRID*                907               0-1.626403709E+00-3.872939596E+00+
*       1.0000001119E+00               0
GRID*                908               0-1.626402609E+00-3.872939985E+00+
*       2.0000002068E+00               0
GRID*                909               0-8.291513502E-014.2218804350E+00+
*       6.9999991662E+00               0
GRID*                910               0-8.291381393E-014.2218835689E+00+
*       8.0000001709E+00               0
GRID*                911               03.0052202330E+00-2.951636299E+00+
*       4.9999980051E+00               0
GRID*                912               03.0052205898E+00-2.951635949E+00+
*       5.9999985215E+00               0
GRID*                913               0-1.626396114E+00-3.872942349E+00+
*       4.9999989839E+00               0
GRID*                914               0-8.291412214E-014.2218827732E+00+
*       2.9999995447E+00               0
GRID*                915               0-8.291457030E-014.2218817097E+00+
*       3.9999988761E+00               0
GRID*                916               0-8.291341867E-01-4.114788312E+00+
*       9.9999999508E+00               0
GRID*                917               0-8.291350575E-01-4.114788073E+00+
*       8.9999998802E+00               0
GRID*                918               0-3.005213308E+00-2.951643705E+00+
*       3.0000004451E+00               0
GRID*                919               0-4.168335826E+00-7.755848534E-01+
*       9.9999998581E+00               0
GRID*                920               0-3.926488553E+00-1.572849492E+00+
*       9.0000005738E+00               0
GRID*                921               0-3.926485536E+00-1.572856443E+00+
*       1.0000000093E+01               0
GRID*                922               03.5337439672E+00-2.307627842E+00+
*       9.9999998790E-01               0
GRID*                923               03.5337428933E+00-2.307629309E+00+
*       2.0000001965E+00               0
GRID*                924               0-2.754030691E-05-4.196449387E+00+
*       6.0000017819E+00               0
GRID*                925               0-2.867519192E-05-4.196449387E+00+
*       7.0000020672E+00               0
GRID*                926               0-4.250000000E+005.3547531155E-02+
*       6.9999995683E+00               0
GRID*                927               02.3611449540E+003.5873099414E+00+
*       3.9999978501E+00               0
GRID*                928               02.3611537635E+003.5873041584E+00+
*       4.9999987780E+00               0
GRID*                929               0-3.005220224E+003.0587325025E+00+
*       4.9999980024E+00               0
GRID*                930               0-3.005216335E+003.0587365985E+00+
*       3.9999982292E+00               0
GRID*                931               0-3.533743706E+002.4147245921E+00+
*       4.0000006961E+00               0
GRID*                932               0-3.533743962E+00-2.307627850E+00+
*       9.0000000121E+00               0
GRID*                933               0-3.533745572E+00-2.307625688E+00+
*       1.0000000153E+01               0
GRID*                934               0-4.250000000E+005.3548710705E-02+
*       3.0000004318E+00               0
GRID*                935               0-4.250000000E+005.3548350648E-02+
*       4.0000003436E+00               0
GRID*                936               0-4.250000000E+005.3547890890E-02+
*       5.9999996565E+00               0
GRID*                937               02.3611943585E+00-3.480181135E+00+
*       2.9999981438E+00               0
GRID*                938               0-2.361177257E+00-3.480192385E+00+
*       9.0000005932E+00               0
GRID*                939               0-1.626406832E+00-3.872938486E+00+
*       9.0000004314E+00               0
GRID*                940               04.1683410816E+008.8265114556E-01+
*       5.0000020266E+00               0
GRID*                941               04.1683352298E+00-7.755883059E-01+
*       7.0000006584E+00               0
GRID*                942               0-3.533745744E+002.4147218031E+00+
*       7.9999997318E+00               0
GRID*                943               0-3.533745382E+002.4147222926E+00+
*       6.9999996851E+00               0
GRID*                944               0-8.291375469E-01-4.114787467E+00+
*       7.9999999926E+00               0
GRID*                945               0-8.291513267E-01-4.114784249E+00+
*       3.0000008342E+00               0
GRID*                946               0-3.005198155E+003.0587559910E+00+
*       9.0000005873E+00               0
GRID*                947               0-3.005196146E+003.0587581308E+00+
*       8.0000010266E+00               0
GRID*                948               03.5337458039E+002.4147217693E+00+
*       -4.815134243E-08               0
GRID*                949               03.5337458426E+002.4147216921E+00+
*       1.0000000177E+00               0
GRID*                950               0-4.996733060E-094.3035455826E+00+
*       5.0000000000E+00               0
GRID*                951               02.7540479944E-054.3035455826E+00+
*       6.0000017819E+00               0
GRID*                952               03.9264809856E+00-1.572866953E+00+
*       8.0000008825E+00               0
GRID*                953               0-1.626404102E+003.9800357095E+00+
*       1.0000000020E+01               0
GRID*                954               0-1.626403778E+003.9800358083E+00+
*       8.9999998894E+00               0
GRID*                955               0-2.361168508E+003.5872944612E+00+
*       9.0000002044E+00               0
GRID*                956               0-2.361172312E+003.5872919801E+00+
*       9.9999998277E+00               0
GRID*                957               03.5337455772E+00-2.307625680E+00+
*       -1.528380363E-07               0
GRID*                958               03.9264934690E+00-1.572838125E+00+
*       2.9999984988E+00               0
GRID*                959               0-8.291375704E-014.2218836546E+00+
*       2.0000000069E+00               0
GRID*                960               08.2915133656E-01-4.114784247E+00+
*       6.9999991658E+00               0
GRID*                961               01.6264008781E+00-3.872940605E+00+
*       7.0000000276E+00               0
GRID*                962               0-1.626403675E+003.9800358864E+00+
*       -6.426893299E-08               0
GRID*                963               0-1.626406906E+003.9800346972E+00+
*       9.9999956898E-01               0
GRID*                964               0-4.168341084E+008.8265113574E-01+
*       4.9999979734E+00               0
GRID*                965               03.5337456724E+002.4147219661E+00+
*       1.0000000148E+01               0
GRID*                966               0-4.250000000E+005.3548801088E-02+
*       2.0000001446E+00               0
GRID*                967               0-4.168335960E+00-7.755841808E-01+
*       -1.725392739E-08               0
GRID*                968               0-4.168334548E+00-7.755921462E-01+
*       9.9999943523E-01               0
GRID*                969               03.5337453760E+002.4147223009E+00+
*       3.0000003149E+00               0
GRID*                970               03.5337457089E+00-2.307625483E+00+
*       1.0000000053E+01               0
GRID*                971               03.5337457465E+00-2.307625405E+00+
*       8.9999999845E+00               0
GRID*                972               0-8.291276976E-01-4.114789843E+00+
*       9.9999937770E-01               0
GRID*                973               0-8.291381154E-01-4.114787382E+00+
*       1.9999998296E+00               0
GRID*                974               0-1.626400933E+003.9800368217E+00+
*       7.0000000290E+00               0
GRID*                975               0-1.626402675E+003.9800361980E+00+
*       7.9999997949E+00               0
GRID*                976               03.5337442984E+00-2.307627347E+00+
*       5.0000003716E+00               0
GRID*                977               0-1.626392669E+003.9800398871E+00+
*       3.0000007729E+00               0
GRID*                978               0-3.926493412E+00-1.572838256E+00+
*       8.0000013869E+00               0
GRID*                979               03.9264885569E+00-1.572849483E+00+
*       9.9999942620E-01               0
GRID*                980               03.9264934161E+00-1.572838247E+00+
*       1.9999986131E+00               0
GRID*                981               08.2915317542E-01-4.114783796E+00+
*       5.9999985493E+00               0
GRID*                982               01.6263987578E+003.9800376080E+00+
*       3.9999995274E+00               0
GRID*                983               0-4.168335228E+00-7.755883157E-01+
*       2.9999993416E+00               0
GRID*                984               0-2.361159454E+003.5873004076E+00+
*       8.0000013102E+00               0
GRID*                985               03.9264736236E+001.6799803184E+00+
*       4.9999981966E+00               0
GRID*                986               03.9264814418E+001.6799622421E+00+
*       5.9999996665E+00               0
GRID*                987               0-3.005203746E+003.0587500336E+00+
*       1.0000000005E+01               0
GRID*                988               0-1.626404032E+00-3.872939497E+00+
*       -1.908258666E-08               0
GRID*                989               0-8.291347662E-01-4.114788196E+00+
*       -2.290784940E-08               0
GRID*                990               0-4.168335973E+008.8268041874E-01+
*       1.0000000016E+01               0
GRID*                991               0-4.250000000E+005.3547954264E-02+
*       1.0000000089E+01               0
GRID*                992               02.8685197226E-05-4.196449387E+00+
*       2.9999979328E+00               0
GRID*                993               04.1683362332E+008.8267869523E-01+
*       8.9999999927E+00               0
GRID*                994               03.0052037385E+003.0587500407E+00+
*       -4.989957599E-09               0
GRID*                995               03.0051981478E+003.0587559981E+00+
*       9.9999941271E-01               0
GRID*                996               0-8.291503189E-014.2218806381E+00+
*       4.9999983860E+00               0
GRID*                997               0-8.291531888E-014.2218799845E+00+
*       5.9999985494E+00               0
GRID*                998               0-3.005204399E+00-2.951653118E+00+
*       8.9999999255E+00               0
GRID*                999               0-3.005207328E+00-2.951649979E+00+
*       8.0000002467E+00               0
GRID*               1000               0-3.533744818E+00-2.307626641E+00+
*       4.0000000081E+00               0
GRID*               1001               0-3.005220583E+00-2.951635956E+00+
*       4.0000014785E+00               0
GRID*               1002               03.9264855397E+00-1.572856434E+00+
*       -9.305901908E-08               0
GRID*               1003               0-1.626395159E+003.9800389828E+00+
*       2.0000002621E+00               0
GRID*               1004               0-2.361171631E+003.5872924350E+00+
*       6.1033254768E-08               0
GRID*               1005               0-2.361177323E+003.5872886804E+00+
*       9.9999940947E-01               0
GRID*               1006               0-4.250000000E+005.3548120698E-02+
*       5.0000000000E+00               0
GRID*               1007               01.6263936226E+00-3.872943287E+00+
*       4.0000011545E+00               0
GRID*               1008               02.3611833870E+00-3.480188352E+00+
*       3.9999989734E+00               0
GRID*               1009               02.3611594026E+00-3.480204119E+00+
*       8.0000013075E+00               0
GRID*               1010               02.3611684541E+00-3.480198166E+00+
*       9.0000002030E+00               0
GRID*               1011               0-4.168332917E+00-7.756014842E-01+
*       1.9999986861E+00               0
GRID*               1012               0-3.926485781E+00-1.572855852E+00+
*       1.6913991356E-07               0
GRID*               1013               0-3.926484421E+00-1.572859017E+00+
*       9.9999994345E-01               0
GRID*               1014               03.0052037685E+00-2.951653839E+00+
*       1.0000000010E+01               0
GRID*               1015               03.0051981651E+00-2.951659786E+00+
*       9.0000005891E+00               0
GRID*               1016               05.3229899012E-06-4.196449387E+00+
*       9.9999955808E-01               0
GRID*               1017               01.7810366417E-05-4.196449387E+00+
*       1.9999985004E+00               0
GRID*               1018               0-1.626398767E+003.9800376042E+00+
*       6.0000004726E+00               0
GRID*               1019               0-8.291277219E-014.2218860316E+00+
*       9.0000006218E+00               0
GRID*               1020               03.5337437004E+002.4147246004E+00+
*       5.9999993039E+00               0
GRID*               1021               0-4.415314720E-07-4.196449395E+00+
*       1.4517487965E-07               0
GRID*               1022               03.5337457389E+002.4147218115E+00+
*       2.0000002682E+00               0
GRID*               1023               02.3611723036E+003.5872919857E+00+
*       1.7233906670E-07               0
GRID*               1024               02.3611684993E+003.5872944668E+00+
*       9.9999979564E-01               0
GRID*               1025               0-4.516765552E-074.3035455903E+00+
*       9.9999998535E+00               0
GRID*               1026               0-8.291347904E-014.2218843807E+00+
*       1.0000000022E+01               0
GRID*               1027               04.1683358281E+00-7.755848435E-01+
*       1.4186793137E-07               0
GRID*               1028               04.1683329280E+008.8269773338E-01+
*       1.9999986858E+00               0
GRID*               1029               03.9264809795E+001.6799632362E+00+
*       1.9999991169E+00               0
GRID*               1030               03.0052115194E+003.0587417011E+00+
*       7.0000009324E+00               0
GRID*               1031               03.0052163276E+003.0587366056E+00+
*       6.0000017708E+00               0
GRID*               1032               0-3.005203310E+003.0587504695E+00+
*       1.4350480150E-07               0
GRID*               1033               0-3.005204393E+003.0587493187E+00+
*       1.0000000783E+00               0
GRID*               1034               04.1683358372E+008.8268110148E-01+
*       9.9999998564E+00               0
GRID*               1035               03.9264855274E+001.6799527161E+00+
*       1.0000000090E+01               0
GRID*               1036               0-3.533745703E+00-2.307625491E+00+
*       -5.296255417E-08               0
GRID*               1037               0-3.533745741E+00-2.307625414E+00+
*       1.0000000155E+00               0
GRID*               1038               03.0052073132E+003.0587461888E+00+
*       8.0000002455E+00               0
GRID*               1039               02.3611722625E+00-3.480195672E+00+
*       9.9999998276E+00               0
GRID*               1040               0-2.361171574E+00-3.480196132E+00+
*       9.9999999418E+00               0
GRID*               1041               0-1.626403604E+00-3.872939675E+00+
*       1.0000000065E+01               0
GRID*               1042               08.2913506735E-01-4.114788071E+00+
*       1.0000001198E+00               0
GRID*               1043               0-3.005203327E+00-2.951654281E+00+
*       9.9999998626E+00               0
GRID*               1044               02.3611494849E+00-3.480210647E+00+
*       7.0000021817E+00               0
GRID*               1045               0-3.533742888E+00-2.307629317E+00+
*       7.9999998035E+00               0
GRID*               1046               0-2.361172254E+00-3.480195678E+00+
*       1.7243715341E-07               0
GRID*               1047               08.2913419657E-01-4.114788310E+00+
*       4.9207899127E-08               0
GRID*               1048               01.6264040929E+003.9800357133E+00+
*       -2.022891522E-08               0
GRID*               1049               01.6264037692E+003.9800358121E+00+
*       1.0000001106E+00               0
GRID*               1050               08.2913420131E-014.2218844978E+00+
*       9.9999999495E+00               0
GRID*               1051               04.2500000000E+005.3547964275E-02+
*       -8.910998187E-08               0
GRID*               1052               0-3.005203761E+00-2.951653846E+00+
*       -9.924591846E-09               0
GRID*               1053               01.6264040417E+00-3.872939493E+00+
*       1.0000000019E+01               0
GRID*               1054               01.6264068417E+00-3.872938482E+00+
*       9.9999956857E-01               0
GRID*               1055               01.6264036133E+00-3.872939671E+00+
*       -6.473468694E-08               0
GRID*               1056               08.2913478053E-014.2218843826E+00+
*       -2.155952985E-08               0
GRID*               1057               08.7789987955E-01-4.359986243E+00+
*       9.0000005568E+00               0
GRID*               1058               08.7791032718E-01-4.359983775E+00+
*       8.0000000471E+00               0
GRID*               1059               01.7220734490E+00-4.103909875E+00+
*       7.9999999000E+00               0
GRID*               1060               01.7220746374E+00-4.103909450E+00+
*       8.9999999353E+00               0
GRID*               1061               02.5000643804E+003.7951597104E+00+
*       9.9999999593E+00               0
GRID*               1062               02.5000701704E+003.7951558902E+00+
*       9.0000005317E+00               0
GRID*               1063               01.7220780044E+004.2110044806E+00+
*       9.0000003535E+00               0
GRID*               1064               01.7220747627E+004.2110056745E+00+
*       1.0000000043E+01               0
GRID*               1065               04.4135352199E+00-8.243397213E-01+
*       2.9999986051E+00               0
GRID*               1066               04.4135336792E+00-8.243484990E-01+
*       1.9999994542E+00               0
GRID*               1067               04.5000000000E+005.3547676485E-02+
*       2.0000000964E+00               0
GRID*               1068               04.5000000000E+005.3547736580E-02+
*       3.0000002878E+00               0
GRID*               1069               03.1819897080E+003.2355168904E+00+
*       3.0000005674E+00               0
GRID*               1070               03.1819723808E+003.2355352861E+00+
*       1.9999990914E+00               0
GRID*               1071               02.5000516499E+003.7951680525E+00+
*       1.9999988067E+00               0
GRID*               1072               02.5000416877E+003.7951746012E+00+
*       2.9999979929E+00               0
GRID*               1073               0-3.741610550E+002.5536179144E+00+
*       2.0000002103E+00               0
GRID*               1074               0-3.741611570E+002.5536165298E+00+
*       1.0000000434E+00               0
GRID*               1075               0-4.157458624E+001.7756161732E+00+
*       9.9999946559E-01               0
GRID*               1076               0-4.157463596E+001.7756046685E+00+
*       1.9999986695E+00               0
GRID*               1077               04.4135325332E+00-8.243550736E-01+
*       9.9999994631E-01               0
GRID*               1078               04.5000000000E+005.3547878619E-02+
*       9.9999995657E-01               0
GRID*               1079               0-4.157455540E+001.7756232627E+00+
*       -5.976983250E-08               0
GRID*               1080               0-4.413532121E+009.3145386496E-01+
*       9.5719752396E-08               0
GRID*               1081               0-4.413532544E+009.3145132174E-01+
*       9.9999994697E-01               0
GRID*               1082               0-3.741611077E+00-2.446520771E+00+
*       5.9999994712E+00               0
GRID*               1083               0-3.741611688E+00-2.446519925E+00+
*       4.9999997024E+00               0
GRID*               1084               0-3.181996979E+00-3.128412943E+00+
*       5.0000018239E+00               0
GRID*               1085               0-3.181993252E+00-3.128416876E+00+
*       6.0000015765E+00               0
GRID*               1086               0-4.500000000E+005.3547868021E-02+
*       9.0000000434E+00               0
GRID*               1087               0-4.500000000E+005.3547665887E-02+
*       7.9999999036E+00               0
GRID*               1088               0-4.413533677E+00-8.243485094E-01+
*       8.0000005458E+00               0
GRID*               1089               0-4.413532531E+00-8.243550840E-01+
*       9.0000000537E+00               0
GRID*               1090               04.1574434952E+00-1.668554943E+00+
*       5.0000018032E+00               0
GRID*               1091               04.1574514724E+00-1.668536475E+00+
*       4.0000004204E+00               0
GRID*               1092               04.4135367039E+00-8.243313316E-01+
*       3.9999979947E+00               0
GRID*               1093               04.4135374023E+00-8.243274244E-01+
*       4.9999980477E+00               0
GRID*               1094               04.4135321988E+00-8.243571695E-01+
*       1.0000000012E+01               0
GRID*               1095               04.4135307549E+00-8.243652964E-01+
*       9.0000005423E+00               0
GRID*               1096               04.5000000000E+005.3548381090E-02+
*       9.0000000435E+00               0
GRID*               1097               04.5000000000E+005.3548241038E-02+
*       1.0000000059E+01               0
GRID*               1098               0-2.500087576E+003.7951444532E+00+
*       2.9999982096E+00               0
GRID*               1099               0-2.500081327E+003.7951485591E+00+
*       1.9999985793E+00               0
GRID*               1100               0-3.181984103E+003.2355227895E+00+
*       1.9999997029E+00               0
GRID*               1101               0-3.181988458E+003.2355181531E+00+
*       2.9999991142E+00               0
GRID*               1102               0-3.181972392E+00-3.128439080E+00+
*       1.9999990923E+00               0
GRID*               1103               0-3.181974451E+00-3.128436890E+00+
*       9.9999944417E-01               0
GRID*               1104               0-2.500060838E+00-3.688065685E+00+
*       9.9999976707E-01               0
GRID*               1105               0-2.500051595E+00-3.688071767E+00+
*       1.9999988085E+00               0
GRID*               1106               08.7791019213E-014.4670799665E+00+
*       8.0000000780E+00               0
GRID*               1107               08.7791401783E-014.4670790503E+00+
*       7.0000004686E+00               0
GRID*               1108               02.9255781954E-054.5535455826E+00+
*       7.0000019613E+00               0
GRID*               1109               01.8273408822E-054.5535455826E+00+
*       8.0000013654E+00               0
GRID*               1110               01.7220694088E+00-4.103911338E+00+
*       6.0000004415E+00               0
GRID*               1111               01.7220668998E+00-4.103912262E+00+
*       5.0000008520E+00               0
GRID*               1112               02.5000462272E+00-3.688075306E+00+
*       5.0000012475E+00               0
GRID*               1113               02.5000371489E+00-3.688081277E+00+
*       6.0000020850E+00               0
GRID*               1114               08.7790754146E-014.4670806044E+00+
*       8.9999999436E+00               0
GRID*               1115               05.5848130000E-064.5535455826E+00+
*       9.0000004078E+00               0
GRID*               1116               08.7792565619E-014.4670763271E+00+
*       4.0000013485E+00               0
GRID*               1117               08.7792367024E-014.4670768069E+00+
*       3.0000008919E+00               0
GRID*               1118               0-2.926637629E-054.5535455826E+00+
*       2.9999980387E+00               0
GRID*               1119               0-2.800894949E-054.5535455826E+00+
*       3.9999982559E+00               0
GRID*               1120               03.0299139431E-07-4.446449395E+00+
*       9.9999999032E+00               0
GRID*               1121               0-5.584905879E-06-4.446449387E+00+
*       9.0000004082E+00               0
GRID*               1122               08.7790698940E-01-4.359984587E+00+
*       1.0000000015E+01               0
GRID*               1123               0-3.741613154E+002.5536144062E+00+
*       -9.873415856E-08               0
GRID*               1124               0-4.157446394E+00-1.668548195E+00+
*       2.9999982171E+00               0
GRID*               1125               0-4.157450738E+00-1.668538128E+00+
*       1.9999991545E+00               0
GRID*               1126               0-3.741612995E+00-2.446518160E+00+
*       2.0000001687E+00               0
GRID*               1127               0-3.741612639E+00-2.446518640E+00+
*       3.0000001888E+00               0
GRID*               1128               0-4.413535218E+00-8.243397317E-01+
*       7.0000013949E+00               0
GRID*               1129               0-4.413536702E+00-8.243313420E-01+
*       6.0000020053E+00               0
GRID*               1130               0-4.157451468E+00-1.668536485E+00+
*       5.9999995796E+00               0
GRID*               1131               0-4.157463644E+00-1.668508280E+00+
*       7.0000014107E+00               0
GRID*               1132               02.5000812595E+00-3.688052255E+00+
*       1.9999985779E+00               0
GRID*               1133               02.5000701169E+00-3.688059586E+00+
*       9.9999946649E-01               0
GRID*               1134               03.1819810118E+00-3.128429895E+00+
*       1.0000000132E+00               0
GRID*               1135               03.1819841184E+00-3.128426579E+00+
*       1.9999997021E+00               0
GRID*               1136               0-1.722063684E+00-4.103913467E+00+
*       6.9999992567E+00               0
GRID*               1137               0-1.722064587E+00-4.103913126E+00+
*       5.9999990165E+00               0
GRID*               1138               0-8.779185394E-01-4.359981788E+00+
*       6.0000010055E+00               0
GRID*               1139               0-8.779140095E-01-4.359982860E+00+
*       7.0000004685E+00               0
GRID*               1140               03.1819798309E+003.2355273389E+00+
*       9.9999999043E+00               0
GRID*               1141               03.1819809900E+003.2355261121E+00+
*       8.9999999843E+00               0
GRID*               1142               0-4.157450744E+001.7756343806E+00+
*       8.0000008459E+00               0
GRID*               1143               0-4.157446399E+001.7756444473E+00+
*       7.0000017833E+00               0
GRID*               1144               0-4.413531433E+009.3145778055E-01+
*       7.0000005328E+00               0
GRID*               1145               0-4.413529093E+009.3147109354E-01+
*       8.0000012363E+00               0
GRID*               1146               03.7416117854E+002.5536162084E+00+
*       4.9999997025E+00               0
GRID*               1147               03.7416122897E+002.5536155256E+00+
*       3.9999999703E+00               0
GRID*               1148               03.1819971699E+003.2355089544E+00+
*       4.0000014770E+00               0
GRID*               1149               03.1819969681E+003.2355091494E+00+
*       5.0000018257E+00               0
GRID*               1150               0-4.157443115E+001.7756520676E+00+
*       6.0000021790E+00               0
GRID*               1151               0-4.413536283E+009.3143016016E-01+
*       5.9999987588E+00               0
GRID*               1152               0-4.157451475E+001.7756327376E+00+
*       4.0000004194E+00               0
GRID*               1153               0-4.157463655E+001.7756045345E+00+
*       2.9999985887E+00               0
GRID*               1154               0-4.413535230E+009.3143596997E-01+
*       2.9999986048E+00               0
GRID*               1155               0-4.413536714E+009.3142757947E-01+
*       3.9999979942E+00               0
GRID*               1156               0-8.779229924E-01-4.359980749E+00+
*       5.0000014136E+00               0
GRID*               1157               0-8.779256478E-01-4.359980138E+00+
*       4.0000013485E+00               0
GRID*               1158               02.8008833685E-05-4.446449387E+00+
*       3.9999982560E+00               0
GRID*               1159               05.2907254630E-09-4.446449387E+00+
*       5.0000000000E+00               0
GRID*               1160               08.7791401992E-01-4.359982858E+00+
*       2.9999995315E+00               0
GRID*               1161               08.7791019387E-01-4.359983774E+00+
*       1.9999999223E+00               0
GRID*               1162               01.7220662121E+00-4.103912546E+00+
*       2.0000003494E+00               0
GRID*               1163               01.7220636934E+00-4.103913463E+00+
*       3.0000007433E+00               0
GRID*               1164               0-3.741610543E+00-2.446521514E+00+
*       6.9999995432E+00               0
GRID*               1165               04.5000000000E+005.3548522947E-02+
*       6.9999997121E+00               0
GRID*               1166               04.5000000000E+005.3548282909E-02+
*       5.9999997709E+00               0
GRID*               1167               04.4135367121E+009.3142758987E-01+
*       6.0000020058E+00               0
GRID*               1168               04.4135352282E+009.3143598036E-01+
*       7.0000013952E+00               0
GRID*               1169               03.7416126444E+00-2.446518631E+00+
*       6.9999998112E+00               0
GRID*               1170               03.7416121984E+00-2.446519233E+00+
*       6.0000000296E+00               0
GRID*               1171               04.1574431156E+00-1.668555806E+00+
*       6.0000021788E+00               0
GRID*               1172               04.1574463979E+00-1.668548185E+00+
*       7.0000017829E+00               0
GRID*               1173               0-3.741613242E+002.5536142750E+00+
*       1.0000000032E+01               0
GRID*               1174               0-3.741613245E+002.5536142517E+00+
*       8.9999999911E+00               0
GRID*               1175               0-4.157454291E+001.7756261796E+00+
*       9.0000001116E+00               0
GRID*               1176               0-4.157455703E+001.7756228683E+00+
*       9.9999998852E+00               0
GRID*               1177               0-2.500081251E+00-3.688052261E+00+
*       8.0000014221E+00               0
GRID*               1178               0-2.500087496E+00-3.688048151E+00+
*       7.0000017899E+00               0
GRID*               1179               0-1.722066202E+00-4.103912550E+00+
*       7.9999996506E+00               0
GRID*               1180               0-1.722066944E+004.2110084820E+00+
*       5.0000008503E+00               0
GRID*               1181               0-1.722064644E+004.2110093405E+00+
*       4.0000009816E+00               0
GRID*               1182               0-2.500076392E+003.7951518016E+00+
*       3.9999990268E+00               0
GRID*               1183               0-2.500046281E+003.7951715887E+00+
*       5.0000012439E+00               0
GRID*               1184               0-2.500037140E+00-3.688081283E+00+
*       3.9999979149E+00               0
GRID*               1185               0-2.500041636E+00-3.688078322E+00+
*       2.9999979943E+00               0
GRID*               1186               0-1.722071619E+00-4.103910536E+00+
*       2.9999999031E+00               0
GRID*               1187               0-1.722069399E+00-4.103911342E+00+
*       3.9999995585E+00               0
GRID*               1188               04.4135290813E+00-8.243748456E-01+
*       8.0000012361E+00               0
GRID*               1189               04.5000000000E+005.3548583202E-02+
*       7.9999999036E+00               0
GRID*               1190               0-4.413530766E+009.3146154410E-01+
*       9.0000005418E+00               0
GRID*               1191               0-3.181988466E+00-3.128421950E+00+
*       7.0000008856E+00               0
GRID*               1192               04.4135307643E+009.3146155450E-01+
*       9.9999945820E-01               0
GRID*               1193               04.4135322081E+009.3145342675E-01+
*       -1.048482943E-08               0
GRID*               1194               04.1574556989E+001.7756228781E+00+
*       1.1477859086E-07               0
GRID*               1195               04.1574542866E+001.7756261894E+00+
*       9.9999988840E-01               0
GRID*               1196               01.7220646342E+004.2110093446E+00+
*       5.9999990184E+00               0
GRID*               1197               01.7220669345E+004.2110084860E+00+
*       4.9999991497E+00               0
GRID*               1198               08.7792300066E-014.4670769381E+00+
*       5.0000014136E+00               0
GRID*               1199               08.7791854760E-014.4670779773E+00+
*       6.0000010055E+00               0
GRID*               1200               03.1819723994E+00-3.128439072E+00+
*       8.0000009077E+00               0
GRID*               1201               03.1819897255E+00-3.128420678E+00+
*       6.9999994319E+00               0
GRID*               1202               03.7416130008E+00-2.446518151E+00+
*       7.9999998313E+00               0
GRID*               1203               0-4.413537400E+00-8.243274348E-01+
*       5.0000019523E+00               0
GRID*               1204               0-4.413536270E+00-8.243339234E-01+
*       4.0000012414E+00               0
GRID*               1205               0-4.157443112E+00-1.668555816E+00+
*       3.9999978212E+00               0
GRID*               1206               0-4.157443491E+00-1.668554953E+00+
*       4.9999981968E+00               0
GRID*               1207               02.5000643347E+00-3.688063400E+00+
*       3.8796297680E-08               0
GRID*               1208               03.1819798639E+00-3.128431134E+00+
*       9.1595035708E-08               0
GRID*               1209               04.4135362721E+00-8.243339130E-01+
*       5.9999987586E+00               0
GRID*               1210               04.5000000000E+005.3548129609E-02+
*       5.0000000000E+00               0
GRID*               1211               03.1819932598E+00-3.128416869E+00+
*       3.9999984235E+00               0
GRID*               1212               03.1819884737E+00-3.128421942E+00+
*       2.9999991144E+00               0
GRID*               1213               03.7416105489E+00-2.446521505E+00+
*       3.0000004568E+00               0
GRID*               1214               03.7416110824E+00-2.446520762E+00+
*       4.0000005288E+00               0
GRID*               1215               04.4135336877E+009.3144475826E-01+
*       8.0000005457E+00               0
GRID*               1216               08.7791032573E-014.4670799673E+00+
*       1.9999999526E+00               0
GRID*               1217               08.7789987840E-014.4670824361E+00+
*       9.9999944348E-01               0
GRID*               1218               0-5.595410391E-064.5535455826E+00+
*       9.9999959218E-01               0
GRID*               1219               0-1.828400513E-054.5535455826E+00+
*       1.9999986346E+00               0
GRID*               1220               04.1574635922E+001.7756046782E+00+
*       8.0000013305E+00               0
GRID*               1221               04.1574636505E+001.7756045443E+00+
*       7.0000014113E+00               0
GRID*               1222               03.7416106403E+002.5536177954E+00+
*       6.9999995435E+00               0
GRID*               1223               03.7416105445E+002.5536179232E+00+
*       7.9999997897E+00               0
GRID*               1224               0-2.500041697E+003.7951745954E+00+
*       7.0000020071E+00               0
GRID*               1225               0-2.500037199E+003.7951775540E+00+
*       6.0000020846E+00               0
GRID*               1226               0-3.181997177E+003.2355089469E+00+
*       5.9999985230E+00               0
GRID*               1227               0-3.181989715E+003.2355168830E+00+
*       6.9999994326E+00               0
GRID*               1228               02.9248064931E-074.5535455903E+00+
*       9.7655968200E-08               0
GRID*               1229               0-8.779066124E-014.4670808516E+00+
*       3.3650505989E-08               0
GRID*               1230               0-8.779075519E-014.4670806023E+00+
*       1.0000000564E+00               0
GRID*               1231               0-3.741612296E+002.5536155168E+00+
*       6.0000000297E+00               0
GRID*               1232               0-3.741611791E+002.5536161996E+00+
*       5.0000002975E+00               0
GRID*               1233               0-4.157443495E+001.7756512046E+00+
*       5.0000018028E+00               0
GRID*               1234               02.5000875672E+003.7951444591E+00+
*       7.0000017904E+00               0
GRID*               1235               02.5000763832E+003.7951518075E+00+
*       6.0000009732E+00               0
GRID*               1236               01.7220637331E+004.2110096847E+00+
*       6.9999992570E+00               0
GRID*               1237               08.7791854977E-01-4.359981786E+00+
*       3.9999989945E+00               0
GRID*               1238               08.7792300279E-01-4.359980747E+00+
*       4.9999985864E+00               0
GRID*               1239               04.5000000000E+005.3547976404E-02+
*       4.0000002290E+00               0
GRID*               1240               04.1574586199E+001.7756161830E+00+
*       9.0000005344E+00               0
GRID*               1241               03.7416115644E+002.5536165386E+00+
*       8.9999999566E+00               0
GRID*               1242               01.7220734839E+004.2110061015E+00+
*       2.0000000989E+00               0
GRID*               1243               01.7220716622E+004.2110067584E+00+
*       2.9999999022E+00               0
GRID*               1244               0-4.413533690E+009.3144474786E-01+
*       1.9999994543E+00               0
GRID*               1245               0-1.827341434E-05-4.446449387E+00+
*       8.0000013652E+00               0
GRID*               1246               02.5000813186E+003.7951485650E+00+
*       8.0000014207E+00               0
GRID*               1247               01.7220662515E+004.2110087686E+00+
*       7.9999996503E+00               0
GRID*               1248               0-4.500000000E+005.3548230437E-02+
*       -5.945141965E-08               0
GRID*               1249               0-4.500000000E+005.3548370492E-02+
*       9.9999995651E-01               0
GRID*               1250               0-2.500046218E+00-3.688075312E+00+
*       4.9999987525E+00               0
GRID*               1251               0-2.500076317E+00-3.688055506E+00+
*       6.0000009694E+00               0
GRID*               1252               04.4135362805E+009.3143017055E-01+
*       4.0000012412E+00               0
GRID*               1253               04.4135314306E+009.3145779094E-01+
*       2.9999994672E+00               0
GRID*               1254               04.1574463946E+001.7756444571E+00+
*       2.9999982167E+00               0
GRID*               1255               04.1574431112E+001.7756520774E+00+
*       3.9999978210E+00               0
GRID*               1256               04.1574557069E+00-1.668526606E+00+
*       9.9999998872E+00               0
GRID*               1257               04.1574542871E+00-1.668529916E+00+
*       9.0000001125E+00               0
GRID*               1258               0-3.741610646E+002.5536177866E+00+
*       3.0000004565E+00               0
GRID*               1259               0-1.722074628E+00-4.103909454E+00+
*       1.0000000647E+00               0
GRID*               1260               0-1.722073439E+00-4.103909880E+00+
*       2.0000001000E+00               0
GRID*               1261               0-8.779236806E-014.4670768048E+00+
*       6.9999991081E+00               0
GRID*               1262               0-8.779103361E-014.4670799653E+00+
*       8.0000000474E+00               0
GRID*               1263               03.1819969869E+00-3.128412935E+00+
*       4.9999981761E+00               0
GRID*               1264               03.1819971872E+00-3.128412742E+00+
*       5.9999985232E+00               0
GRID*               1265               0-1.722066890E+00-4.103912266E+00+
*       4.9999991480E+00               0
GRID*               1266               0-8.779140282E-014.4670790483E+00+
*       2.9999995314E+00               0
GRID*               1267               0-8.779185580E-014.4670779752E+00+
*       3.9999989945E+00               0
GRID*               1268               0-8.779065927E-01-4.359984666E+00+
*       9.9999999672E+00               0
GRID*               1269               0-8.779075324E-01-4.359984414E+00+
*       8.9999999438E+00               0
GRID*               1270               0-3.181989718E+00-3.128420685E+00+
*       3.0000005681E+00               0
GRID*               1271               0-4.413532108E+00-8.243576283E-01+
*       9.9999999054E+00               0
GRID*               1272               0-4.157458615E+00-1.668519919E+00+
*       9.0000005357E+00               0
GRID*               1273               0-4.157455539E+00-1.668527011E+00+
*       1.0000000062E+01               0
GRID*               1274               03.7416114722E+00-2.446520248E+00+
*       1.0000000418E+00               0
GRID*               1275               03.7416104530E+00-2.446521633E+00+
*       2.0000002102E+00               0
GRID*               1276               0-2.799824393E-05-4.446449387E+00+
*       6.0000017440E+00               0
GRID*               1277               0-2.925565783E-05-4.446449387E+00+
*       7.0000019611E+00               0
GRID*               1278               0-4.500000000E+005.3547725982E-02+
*       6.9999997122E+00               0
GRID*               1279               02.5000371899E+003.7951775599E+00+
*       3.9999979153E+00               0
GRID*               1280               02.5000462721E+003.7951715946E+00+
*       4.9999987561E+00               0
GRID*               1281               0-3.181996976E+003.2355091419E+00+
*       4.9999981743E+00               0
GRID*               1282               0-3.181993246E+003.2355130781E+00+
*       3.9999984217E+00               0
GRID*               1283               0-3.741611180E+002.5536170449E+00+
*       4.0000005284E+00               0
GRID*               1284               0-3.741611466E+00-2.446520257E+00+
*       8.9999999582E+00               0
GRID*               1285               0-3.741613051E+00-2.446518132E+00+
*       1.0000000102E+01               0
GRID*               1286               0-4.500000000E+005.3548512349E-02+
*       3.0000002879E+00               0
GRID*               1287               0-4.500000000E+005.3548272311E-02+
*       4.0000002291E+00               0
GRID*               1288               0-4.500000000E+005.3547965806E-02+
*       5.9999997710E+00               0
GRID*               1289               02.5000875053E+00-3.688048145E+00+
*       2.9999982101E+00               0
GRID*               1290               0-2.500070108E+00-3.688059592E+00+
*       9.0000005335E+00               0
GRID*               1291               0-1.722077955E+00-4.103908259E+00+
*       9.0000003538E+00               0
GRID*               1292               04.4135374105E+009.3142368202E-01+
*       5.0000019525E+00               0
GRID*               1293               04.4135314213E+00-8.243615330E-01+
*       7.0000005324E+00               0
GRID*               1294               0-3.741613099E+002.5536144344E+00+
*       7.9999998315E+00               0
GRID*               1295               0-3.741612742E+002.5536149146E+00+
*       6.9999998115E+00               0
GRID*               1296               0-8.779101835E-01-4.359983776E+00+
*       8.0000000777E+00               0
GRID*               1297               0-8.779236617E-01-4.359980618E+00+
*       3.0000008922E+00               0
GRID*               1298               0-3.181974447E+003.2355330899E+00+
*       9.0000005546E+00               0
GRID*               1299               0-3.181972388E+003.2355352786E+00+
*       8.0000009086E+00               0
GRID*               1300               03.7416132362E+002.5536142838E+00+
*       -3.210089495E-08               0
GRID*               1301               03.7416132389E+002.5536142606E+00+
*       1.0000000089E+00               0
GRID*               1302               0-5.290991938E-094.5535455826E+00+
*       5.0000000000E+00               0
GRID*               1303               02.7998359277E-054.5535455826E+00+
*       6.0000017441E+00               0
GRID*               1304               04.1574507417E+00-1.668538118E+00+
*       8.0000008455E+00               0
GRID*               1305               0-1.722075057E+004.2110055525E+00+
*       1.0000000013E+01               0
GRID*               1306               0-1.722074684E+004.2110056717E+00+
*       8.9999999362E+00               0
GRID*               1307               0-2.500060906E+003.7951619715E+00+
*       9.0000002339E+00               0
GRID*               1308               0-2.500064843E+003.7951594013E+00+
*       9.9999998851E+00               0
GRID*               1309               03.7416130569E+00-2.446518123E+00+
*       -1.018920242E-07               0
GRID*               1310               04.1574636477E+00-1.668508270E+00+
*       2.9999985893E+00               0
GRID*               1311               0-8.779102025E-014.4670799644E+00+
*       1.9999999220E+00               0
GRID*               1312               08.7792367208E-01-4.359980616E+00+
*       6.9999991078E+00               0
GRID*               1313               01.7220716287E+00-4.103910532E+00+
*       7.0000000969E+00               0
GRID*               1314               0-1.722074772E+004.2110056704E+00+
*       -4.284595533E-08               0
GRID*               1315               0-1.722078014E+004.2110044766E+00+
*       9.9999964646E-01               0
GRID*               1316               0-4.413537413E+009.3142367162E-01+
*       4.9999980475E+00               0
GRID*               1317               03.7416131485E+002.5536144151E+00+
*       1.0000000099E+01               0
GRID*               1318               0-4.500000000E+005.3548572604E-02+
*       2.0000000964E+00               0
GRID*               1319               0-4.413532197E+00-8.243571799E-01+
*       -1.150261826E-08               0
GRID*               1320               0-4.413530753E+00-8.243653068E-01+
*       9.9999945774E-01               0
GRID*               1321               03.7416127361E+002.5536149234E+00+
*       3.0000001885E+00               0
GRID*               1322               03.7416131447E+00-2.446517992E+00+
*       1.0000000035E+01               0
GRID*               1323               03.7416131461E+00-2.446517969E+00+
*       8.9999999926E+00               0
GRID*               1324               0-8.778998692E-01-4.359986245E+00+
*       9.9999944317E-01               0
GRID*               1325               0-8.779103168E-01-4.359983777E+00+
*       1.9999999529E+00               0
GRID*               1326               0-1.722071672E+004.2110067543E+00+
*       7.0000000978E+00               0
GRID*               1327               0-1.722073494E+004.2110060975E+00+
*       7.9999999011E+00               0
GRID*               1328               03.7416116943E+00-2.446519916E+00+
*       5.0000002976E+00               0
GRID*               1329               0-1.722063743E+004.2110096807E+00+
*       3.0000007430E+00               0
GRID*               1330               0-4.157463585E+00-1.668508414E+00+
*       8.0000013307E+00               0
GRID*               1331               04.1574586188E+00-1.668519910E+00+
*       9.9999946427E-01               0
GRID*               1332               04.1574635894E+00-1.668508404E+00+
*       1.9999986693E+00               0
GRID*               1333               08.7792565822E-01-4.359980136E+00+
*       5.9999986515E+00               0
GRID*               1334               01.7220694417E+004.2110075633E+00+
*       3.9999995586E+00               0
GRID*               1335               0-4.413531419E+00-8.243615434E-01+
*       2.9999994676E+00               0
GRID*               1336               0-2.500051659E+003.7951680466E+00+
*       8.0000011933E+00               0
GRID*               1337               04.1574434910E+001.7756512144E+00+
*       4.9999981972E+00               0
GRID*               1338               04.1574514710E+001.7756327474E+00+
*       5.9999995806E+00               0
GRID*               1339               0-3.181980129E+003.2355270409E+00+
*       1.0000000003E+01               0
GRID*               1340               0-1.722075001E+00-4.103909335E+00+
*       -1.272172444E-08               0
GRID*               1341               0-8.779069790E-01-4.359984590E+00+
*       -1.527189960E-08               0
GRID*               1342               0-4.413532210E+009.3145341635E-01+
*       1.0000000010E+01               0
GRID*               1343               0-4.500000000E+005.3548008054E-02+
*       1.0000000059E+01               0
GRID*               1344               02.9266251771E-05-4.446449387E+00+
*       2.9999980389E+00               0
GRID*               1345               04.4135325421E+009.3145133214E-01+
*       9.0000000530E+00               0
GRID*               1346               03.1819801214E+003.2355270484E+00+
*       -3.326638400E-09               0
GRID*               1347               03.1819744390E+003.2355330974E+00+
*       9.9999944538E-01               0
GRID*               1348               0-8.779230111E-014.4670769360E+00+
*       4.9999985864E+00               0
GRID*               1349               0-8.779256666E-014.4670763250E+00+
*       5.9999986515E+00               0
GRID*               1350               0-3.181981004E+00-3.128429903E+00+
*       8.9999999868E+00               0
GRID*               1351               0-3.181984111E+00-3.128426586E+00+
*       8.0000002979E+00               0
GRID*               1352               0-3.741612193E+00-2.446519242E+00+
*       3.9999999704E+00               0
GRID*               1353               0-3.181997180E+00-3.128412749E+00+
*       4.0000014768E+00               0
GRID*               1354               04.1574555435E+00-1.668527001E+00+
*       -6.203934606E-08               0
GRID*               1355               0-1.722066261E+004.2110087646E+00+
*       2.0000003497E+00               0
GRID*               1356               0-2.500064389E+003.7951597046E+00+
*       4.0688836512E-08               0
GRID*               1357               0-2.500070179E+003.7951558843E+00+
*       9.9999946828E-01               0
GRID*               1358               0-4.500000000E+005.3548119011E-02+
*       5.0000000000E+00               0
GRID*               1359               01.7220645963E+00-4.103913122E+00+
*       4.0000009835E+00               0
GRID*               1360               02.5000763260E+00-3.688055501E+00+
*       3.9999990306E+00               0
GRID*               1361               02.5000516034E+00-3.688071761E+00+
*       8.0000011915E+00               0
GRID*               1362               02.5000608473E+00-3.688065680E+00+
*       9.0000002329E+00               0
GRID*               1363               0-4.413529079E+00-8.243748560E-01+
*       1.9999987639E+00               0
GRID*               1364               0-4.157455703E+00-1.668526616E+00+
*       1.1275994237E-07               0
GRID*               1365               0-4.157454283E+00-1.668529926E+00+
*       9.9999988755E-01               0
GRID*               1366               03.1819801537E+00-3.128430844E+00+
*       1.0000000007E+01               0
GRID*               1367               03.1819744589E+00-3.128436882E+00+
*       9.0000005558E+00               0
GRID*               1368               05.5955027524E-06-4.446449387E+00+
*       9.9999959182E-01               0
GRID*               1369               01.8284010263E-05-4.446449387E+00+
*       1.9999986348E+00               0
GRID*               1370               0-1.722069452E+004.2110075592E+00+
*       6.0000004414E+00               0
GRID*               1371               0-8.778998888E-014.4670824340E+00+
*       9.0000005565E+00               0
GRID*               1372               03.7416111737E+002.5536170537E+00+
*       5.9999994716E+00               0
GRID*               1373               0-2.923913660E-07-4.446449395E+00+
*       9.6783253101E-08               0
GRID*               1374               03.7416130929E+002.5536144432E+00+
*       2.0000001685E+00               0
GRID*               1375               02.5000648342E+003.7951594072E+00+
*       1.1489271114E-07               0
GRID*               1376               02.5000608967E+003.7951619774E+00+
*       9.9999976615E-01               0
GRID*               1377               0-3.030806521E-074.5535455903E+00+
*       9.9999999023E+00               0
GRID*               1378               0-8.779069985E-014.4670807748E+00+
*       1.0000000014E+01               0
GRID*               1379               04.4135321097E+00-8.243576179E-01+
*       9.4578620912E-08               0
GRID*               1380               04.4135290909E+009.3147110393E-01+
*       1.9999987637E+00               0
GRID*               1381               04.1574507399E+001.7756343904E+00+
*       1.9999991541E+00               0
GRID*               1382               03.1819884505E+003.2355181606E+00+
*       7.0000008858E+00               0
GRID*               1383               03.1819932383E+003.2355130856E+00+
*       6.0000015783E+00               0
GRID*               1384               0-3.181979838E+003.2355273314E+00+
*       9.5669867665E-08               0
GRID*               1385               0-3.181980998E+003.2355261046E+00+
*       1.0000000157E+00               0
GRID*               1386               04.4135321188E+009.3145387536E-01+
*       9.9999999043E+00               0
GRID*               1387               04.1574555355E+001.7756232724E+00+
*       1.0000000060E+01               0
GRID*               1388               0-3.741613139E+00-2.446518001E+00+
*       -3.530836945E-08               0
GRID*               1389               0-3.741613140E+00-2.446517978E+00+
*       1.0000000074E+00               0
GRID*               1390               03.1819840957E+003.2355227970E+00+
*       8.0000002971E+00               0
GRID*               1391               02.5000647884E+00-3.688063097E+00+
*       9.9999998850E+00               0
GRID*               1392               0-2.500064326E+00-3.688063406E+00+
*       9.9999999612E+00               0
GRID*               1393               0-1.722074715E+00-4.103909453E+00+
*       1.0000000043E+01               0
GRID*               1394               08.7790754276E-01-4.359984412E+00+
*       1.0000000562E+00               0
GRID*               1395               0-3.181979856E+00-3.128431142E+00+
*       9.9999999084E+00               0
GRID*               1396               02.5000416451E+00-3.688078316E+00+
*       7.0000020057E+00               0
GRID*               1397               0-3.741610447E+00-2.446521641E+00+
*       7.9999997898E+00               0
GRID*               1398               0-2.500064780E+00-3.688063103E+00+
*       1.1495810227E-07               0
GRID*               1399               08.7790660313E-01-4.359984664E+00+
*       3.2805266085E-08               0
GRID*               1400               01.7220750474E+004.2110055565E+00+
*       -1.348594348E-08               0
GRID*               1401               01.7220746742E+004.2110056758E+00+
*       1.0000000638E+00               0
GRID*               1402               08.7790660199E-014.4670808537E+00+
*       9.9999999663E+00               0
GRID*               1403               04.5000000000E+005.3548018654E-02+
*       -5.940665458E-08               0
GRID*               1404               0-3.181980146E+00-3.128430852E+00+
*       -6.616394564E-09               0
GRID*               1405               01.7220750108E+00-4.103909331E+00+
*       1.0000000013E+01               0
GRID*               1406               01.7220779649E+00-4.103908255E+00+
*       9.9999964618E-01               0
GRID*               1407               01.7220747252E+00-4.103909449E+00+
*       -4.315645796E-08               0
GRID*               1408               08.7790698814E-014.4670807769E+00+
*       -1.437301990E-08               0
GRID*               1409               09.2667205167E-01-4.605182644E+00+
*       9.0000004914E+00               0
GRID*               1410               09.2668252917E-01-4.605180170E+00+
*       7.9999999237E+00               0
GRID*               1411               01.8177442801E+00-4.334879770E+00+
*       8.0000000067E+00               0
GRID*               1412               01.8177455565E+00-4.334879308E+00+
*       8.9999999825E+00               0
GRID*               1413               02.6389571379E+004.0030269803E+00+
*       9.9999999797E+00               0
GRID*               1414               02.6389630262E+004.0030230945E+00+
*       9.0000004729E+00               0
GRID*               1415               01.8177491124E+004.4419742602E+00+
*       9.0000002761E+00               0
GRID*               1416               01.8177458595E+004.4419754587E+00+
*       1.0000000021E+01               0
GRID*               1417               04.6587316139E+00-8.731119302E-01+
*       2.9999987397E+00               0
GRID*               1418               04.6587300445E+00-8.731208525E-01+
*       1.9999994298E+00               0
GRID*               1419               04.7500000000E+005.3547901949E-02+
*       2.0000000482E+00               0
GRID*               1420               04.7500000000E+005.3547931997E-02+
*       3.0000001439E+00               0
GRID*               1421               03.3587661150E+003.4122938740E+00+
*       3.0000006908E+00               0
GRID*               1422               03.3587486231E+003.4123124344E+00+
*       1.9999992094E+00               0
GRID*               1423               02.6389438546E+004.0030356918E+00+
*       1.9999989236E+00               0
GRID*               1424               02.6389338516E+004.0030422678E+00+
*       2.9999981696E+00               0
GRID*               1425               0-3.949478107E+002.6925102429E+00+
*       2.0000002240E+00               0
GRID*               1426               0-3.949479072E+002.6925089402E+00+
*       1.0000000965E+00               0
GRID*               1427               0-4.388428690E+001.8712865888E+00+
*       9.9999950301E-01               0
GRID*               1428               0-4.388433774E+001.8712748150E+00+
*       1.9999987256E+00               0
GRID*               1429               04.6587288419E+00-8.731277114E-01+
*       9.9999988630E-01               0
GRID*               1430               04.7500000000E+005.3548003016E-02+
*       9.9999997828E-01               0
GRID*               1431               0-4.388425548E+001.8712938185E+00+
*       -2.988491625E-08               0
GRID*               1432               0-4.658728403E+009.8022663827E-01+
*       4.7859876198E-08               0
GRID*               1433               0-4.658728853E+009.8022395807E-01+
*       9.9999988663E-01               0
GRID*               1434               0-3.949478553E+00-2.585413220E+00+
*       5.9999996391E+00               0
GRID*               1435               0-3.949479084E+00-2.585412495E+00+
*       4.9999997765E+00               0
GRID*               1436               0-3.358773733E+00-3.305189580E+00+
*       5.0000016529E+00               0
GRID*               1437               0-3.358770164E+00-3.305193355E+00+
*       6.0000013849E+00               0
GRID*               1438               0-4.750000000E+005.3547991829E-02+
*       9.0000000217E+00               0
GRID*               1439               0-4.750000000E+005.3547890762E-02+
*       7.9999999518E+00               0
GRID*               1440               0-4.658730042E+00-8.731208635E-01+
*       8.0000005702E+00               0
GRID*               1441               0-4.658728840E+00-8.731277223E-01+
*       9.0000001137E+00               0
GRID*               1442               04.3884133582E+00-1.764225850E+00+
*       5.0000018025E+00               0
GRID*               1443               04.3884214973E+00-1.764206991E+00+
*       4.0000005058E+00               0
GRID*               1444               04.6587330751E+00-8.731036555E-01+
*       3.9999981961E+00               0
GRID*               1445               04.6587337310E+00-8.730999613E-01+
*       4.9999981216E+00               0
GRID*               1446               04.6587284358E+00-8.731301681E-01+
*       1.0000000006E+01               0
GRID*               1447               04.6587269597E+00-8.731384564E-01+
*       9.0000005198E+00               0
GRID*               1448               04.7500000000E+005.3548254252E-02+
*       9.0000000217E+00               0
GRID*               1449               04.7500000000E+005.3548184225E-02+
*       1.0000000030E+01               0
GRID*               1450               0-2.638980727E+004.0030114603E+00+
*       2.9999982761E+00               0
GRID*               1451               0-2.638974377E+004.0030156340E+00+
*       1.9999986839E+00               0
GRID*               1452               0-3.358760886E+003.4122993972E+00+
*       1.9999996514E+00               0
GRID*               1453               0-3.358765390E+003.4122946122E+00+
*       2.9999991609E+00               0
GRID*               1454               0-3.358748637E+00-3.305216225E+00+
*       1.9999992099E+00               0
GRID*               1455               0-3.358750745E+00-3.305213987E+00+
*       9.9999947744E-01               0
GRID*               1456               0-2.638953231E+00-3.895933199E+00+
*       9.9999973711E-01               0
GRID*               1457               0-2.638943795E+00-3.895939409E+00+
*       1.9999989245E+00               0
GRID*               1458               09.2668282369E-014.7122762765E+00+
*       8.0000001630E+00               0
GRID*               1459               09.2668682404E-014.7122753255E+00+
*       7.0000004819E+00               0
GRID*               1460               02.9836185908E-054.8035455826E+00+
*       7.0000018551E+00               0
GRID*               1461               01.8746466972E-054.8035455826E+00+
*       8.0000012309E+00               0
GRID*               1462               01.8177401051E+00-4.334881288E+00+
*       6.0000004103E+00               0
GRID*               1463               01.8177376768E+00-4.334882178E+00+
*       5.0000006879E+00               0
GRID*               1464               02.6389387322E+00-3.895942745E+00+
*       5.0000012675E+00               0
GRID*               1465               02.6389293810E+00-3.895948898E+00+
*       6.0000020196E+00               0
GRID*               1466               09.2668001106E-014.7122769465E+00+
*       9.0000000072E+00               0
GRID*               1467               05.8567837680E-064.8035455826E+00+
*       9.0000003743E+00               0
GRID*               1468               09.2669813338E-014.7122726677E+00+
*       4.0000012463E+00               0
GRID*               1469               09.2669600008E-014.7122731769E+00+
*       3.0000009500E+00               0
GRID*               1470               0-2.984736890E-054.8035455826E+00+
*       2.9999981449E+00               0
GRID*               1471               0-2.846741741E-054.8035455826E+00+
*       3.9999982938E+00               0
GRID*               1472               01.5444011833E-07-4.696449395E+00+
*       9.9999999516E+00               0
GRID*               1473               0-5.856829977E-06-4.696449387E+00+
*       9.0000003744E+00               0
GRID*               1474               09.2667920283E-01-4.605180981E+00+
*       1.0000000008E+01               0
GRID*               1475               0-3.949480631E+002.6925068547E+00+
*       -4.936707928E-08               0
GRID*               1476               0-4.388416118E+00-1.764219436E+00+
*       2.9999984008E+00               0
GRID*               1477               0-4.388420494E+00-1.764209293E+00+
*       1.9999991914E+00               0
GRID*               1478               0-3.949480352E+00-2.585410787E+00+
*       2.0000000689E+00               0
GRID*               1479               0-3.949480001E+00-2.585411258E+00+
*       3.0000000623E+00               0
GRID*               1480               0-4.658731612E+00-8.731119412E-01+
*       7.0000012603E+00               0
GRID*               1481               0-4.658733073E+00-8.731036664E-01+
*       6.0000018039E+00               0
GRID*               1482               0-4.388421493E+00-1.764207001E+00+
*       5.9999994942E+00               0
GRID*               1483               0-4.388433822E+00-1.764178425E+00+
*       7.0000013203E+00               0
GRID*               1484               02.6389743047E+00-3.895919333E+00+
*       1.9999986832E+00               0
GRID*               1485               02.6389629685E+00-3.895926793E+00+
*       9.9999952619E-01               0
GRID*               1486               03.3587576178E+00-3.305206680E+00+
*       9.9999995186E-01               0
GRID*               1487               03.3587609020E+00-3.305203186E+00+
*       1.9999996510E+00               0
GRID*               1488               0-1.817734773E+00-4.334883255E+00+
*       6.9999992868E+00               0
GRID*               1489               0-1.817735560E+00-4.334882962E+00+
*       5.9999991874E+00               0
GRID*               1490               0-9.266913987E-01-4.605178052E+00+
*       6.0000008872E+00               0
GRID*               1491               0-9.266868206E-01-4.605179135E+00+
*       7.0000004818E+00               0
GRID*               1492               03.3587563591E+003.4123042013E+00+
*       9.9999999522E+00               0
GRID*               1493               03.3587575944E+003.4123028983E+00+
*       9.0000000469E+00               0
GRID*               1494               0-4.388420505E+001.8713055342E+00+
*       8.0000008088E+00               0
GRID*               1495               0-4.388416128E+001.8713156770E+00+
*       7.0000015994E+00               0
GRID*               1496               0-4.658727624E+009.8023100655E-01+
*       7.0000004066E+00               0
GRID*               1497               0-4.658725256E+009.8024446351E-01+
*       8.0000011584E+00               0
GRID*               1498               03.9494791782E+002.6925087820E+00+
*       4.9999997765E+00               0
GRID*               1499               03.9494796615E+002.6925081308E+00+
*       3.9999999327E+00               0
GRID*               1500               03.3587737633E+003.4122857515E+00+
*       4.0000014752E+00               0
GRID*               1501               03.3587737188E+003.4122857892E+00+
*       5.0000016538E+00               0
GRID*               1502               0-4.388412893E+001.8713231809E+00+
*       6.0000020304E+00               0
GRID*               1503               0-4.658732552E+009.8020299471E-01+
*       5.9999986860E+00               0
GRID*               1504               0-4.388421505E+001.8713032424E+00+
*       4.0000005053E+00               0
GRID*               1505               0-4.388433838E+001.8712746680E+00+
*       2.9999986794E+00               0
GRID*               1506               0-4.658731625E+009.8020817716E-01+
*       2.9999987395E+00               0
GRID*               1507               0-4.658733086E+009.8019990198E-01+
*       3.9999981958E+00               0
GRID*               1508               0-9.266956890E-01-4.605177046E+00+
*       5.0000012132E+00               0
GRID*               1509               0-9.266981301E-01-4.605176478E+00+
*       4.0000012463E+00               0
GRID*               1510               02.8467359270E-05-4.696449387E+00+
*       3.9999982938E+00               0
GRID*               1511               05.5849730310E-09-4.696449387E+00+
*       5.0000000000E+00               0
GRID*               1512               09.2668683160E-01-4.605179132E+00+
*       2.9999995182E+00               0
GRID*               1513               09.2668283105E-01-4.605180083E+00+
*       1.9999998371E+00               0
GRID*               1514               01.8177373299E+00-4.334882322E+00+
*       2.0000004372E+00               0
GRID*               1515               01.8177347830E+00-4.334883251E+00+
*       3.0000007132E+00               0
GRID*               1516               0-3.949478105E+00-2.585413834E+00+
*       6.9999996576E+00               0
GRID*               1517               04.7500000000E+005.3548325180E-02+
*       6.9999998561E+00               0
GRID*               1518               04.7500000000E+005.3548205161E-02+
*       5.9999998855E+00               0
GRID*               1519               04.6587330834E+009.8019991295E-01+
*       6.0000018042E+00               0
GRID*               1520               04.6587316224E+009.8020818813E-01+
*       7.0000012605E+00               0
GRID*               1521               03.9494800075E+00-2.585411249E+00+
*       6.9999999377E+00               0
GRID*               1522               03.9494795731E+00-2.585411834E+00+
*       6.0000000673E+00               0
GRID*               1523               04.3884128884E+00-1.764226930E+00+
*       6.0000020303E+00               0
GRID*               1524               04.3884161225E+00-1.764219426E+00+
*       7.0000015992E+00               0
GRID*               1525               0-3.949480675E+002.6925067891E+00+
*       1.0000000016E+01               0
GRID*               1526               0-3.949480641E+002.6925068197E+00+
*       8.9999999999E+00               0
GRID*               1527               0-4.388424157E+001.8712970778E+00+
*       9.0000001679E+00               0
GRID*               1528               0-4.388425630E+001.8712936213E+00+
*       9.9999999426E+00               0
GRID*               1529               0-2.638974295E+00-3.895919339E+00+
*       8.0000013168E+00               0
GRID*               1530               0-2.638980643E+00-3.895915161E+00+
*       7.0000017236E+00               0
GRID*               1531               0-1.817737320E+00-4.334882326E+00+
*       7.9999995628E+00               0
GRID*               1532               0-1.817737708E+004.4419784040E+00+
*       5.0000006870E+00               0
GRID*               1533               0-1.817735603E+004.4419791818E+00+
*       4.0000008116E+00               0
GRID*               1534               0-2.638969335E+004.0030189476E+00+
*       3.9999990859E+00               0
GRID*               1535               0-2.638938790E+004.0030390246E+00+
*       5.0000012657E+00               0
GRID*               1536               0-2.638929372E+00-3.895948904E+00+
*       3.9999979804E+00               0
GRID*               1537               0-2.638933796E+00-3.895945991E+00+
*       2.9999981703E+00               0
GRID*               1538               0-1.817742369E+00-4.334880464E+00+
*       2.9999998338E+00               0
GRID*               1539               0-1.817740095E+00-4.334881292E+00+
*       3.9999995897E+00               0
GRID*               1540               04.6587252441E+00-8.731482168E-01+
*       8.0000011583E+00               0
GRID*               1541               04.7500000000E+005.3548355307E-02+
*       7.9999999518E+00               0
GRID*               1542               0-4.658726971E+009.8023470292E-01+
*       9.0000005195E+00               0
GRID*               1543               0-3.358765398E+00-3.305198409E+00+
*       7.0000008390E+00               0
GRID*               1544               04.6587269692E+009.8023471389E-01+
*       9.9999948048E-01               0
GRID*               1545               04.6587284451E+009.8022642494E-01+
*       -5.242414713E-09               0
GRID*               1546               04.3884256253E+001.8712936316E+00+
*       5.7389295432E-08               0
GRID*               1547               04.3884241529E+001.8712970881E+00+
*       9.9999983206E-01               0
GRID*               1548               01.8177355929E+004.4419791861E+00+
*       5.9999991884E+00               0
GRID*               1549               01.8177376981E+004.4419784083E+00+
*       4.9999993130E+00               0
GRID*               1550               09.2669569224E-014.7122732361E+00+
*       5.0000012132E+00               0
GRID*               1551               09.2669140202E-014.7122742429E+00+
*       6.0000008872E+00               0
GRID*               1552               03.3587486450E+00-3.305216217E+00+
*       8.0000007901E+00               0
GRID*               1553               03.3587661363E+00-3.305197657E+00+
*       6.9999993089E+00               0
GRID*               1554               03.9494803579E+00-2.585410778E+00+
*       7.9999999311E+00               0
GRID*               1555               0-4.658733729E+00-8.730999723E-01+
*       5.0000018784E+00               0
GRID*               1556               0-4.658732539E+00-8.731067595E-01+
*       4.0000013141E+00               0
GRID*               1557               0-4.388412884E+00-1.764226941E+00+
*       3.9999979697E+00               0
GRID*               1558               0-4.388413354E+00-1.764225860E+00+
*       4.9999981975E+00               0
GRID*               1559               02.6389570875E+00-3.895930673E+00+
*       1.9398148840E-08               0
GRID*               1560               03.3587563940E+00-3.305207995E+00+
*       4.5797517854E-08               0
GRID*               1561               04.6587325414E+00-8.731067486E-01+
*       5.9999986859E+00               0
GRID*               1562               04.7500000000E+005.3548128511E-02+
*       5.0000000000E+00               0
GRID*               1563               03.3587701722E+00-3.305193347E+00+
*       3.9999986151E+00               0
GRID*               1564               03.3587654058E+00-3.305198401E+00+
*       2.9999991610E+00               0
GRID*               1565               03.9494781109E+00-2.585413825E+00+
*       3.0000003424E+00               0
GRID*               1566               03.9494785588E+00-2.585413211E+00+
*       4.0000003609E+00               0
GRID*               1567               04.6587300532E+009.8021711056E-01+
*       8.0000005701E+00               0
GRID*               1568               09.2668252196E-014.7122763639E+00+
*       2.0000000761E+00               0
GRID*               1569               09.2667204472E-014.7122788386E+00+
*       9.9999950879E-01               0
GRID*               1570               0-5.867969932E-064.8035455826E+00+
*       9.9999962574E-01               0
GRID*               1571               0-1.875765196E-054.8035455826E+00+
*       1.9999987691E+00               0
GRID*               1572               04.3884337699E+001.8712748253E+00+
*       8.0000012744E+00               0
GRID*               1573               04.3884338335E+001.8712746783E+00+
*       7.0000013206E+00               0
GRID*               1574               03.9494781990E+002.6925101209E+00+
*       6.9999996578E+00               0
GRID*               1575               03.9494781008E+002.6925102522E+00+
*       7.9999997760E+00               0
GRID*               1576               0-2.638933861E+004.0030422616E+00+
*       7.0000018304E+00               0
GRID*               1577               0-2.638929435E+004.0030451721E+00+
*       6.0000020194E+00               0
GRID*               1578               0-3.358773771E+003.4122857436E+00+
*       5.9999985248E+00               0
GRID*               1579               0-3.358766123E+003.4122938661E+00+
*       6.9999993092E+00               0
GRID*               1580               01.4329590209E-074.8035455903E+00+
*       4.8827984100E-08               0
GRID*               1581               0-9.266790136E-014.7122772074E+00+
*       1.6825252994E-08               0
GRID*               1582               0-9.266800220E-014.7122769443E+00+
*       9.9999999276E-01               0
GRID*               1583               0-3.949479668E+002.6925081215E+00+
*       6.0000000673E+00               0
GRID*               1584               0-3.949479184E+002.6925087727E+00+
*       5.0000002235E+00               0
GRID*               1585               0-4.388413363E+001.8713221001E+00+
*       5.0000018023E+00               0
GRID*               1586               02.6389807176E+004.0030114665E+00+
*       7.0000017239E+00               0
GRID*               1587               02.6389693258E+004.0030189538E+00+
*       6.0000009141E+00               0
GRID*               1588               01.8177348068E+004.4419794786E+00+
*       6.9999992869E+00               0
GRID*               1589               09.2669140967E-01-4.605178050E+00+
*       3.9999991128E+00               0
GRID*               1590               09.2669569992E-01-4.605177044E+00+
*       4.9999987868E+00               0
GRID*               1591               04.7500000000E+005.3548051908E-02+
*       4.0000001145E+00               0
GRID*               1592               04.3884286861E+001.8712865992E+00+
*       9.0000004970E+00               0
GRID*               1593               03.9494790659E+002.6925089495E+00+
*       8.9999999035E+00               0
GRID*               1594               01.8177443019E+004.4419760013E+00+
*       1.9999999927E+00               0
GRID*               1595               01.8177424002E+004.4419766912E+00+
*       2.9999998333E+00               0
GRID*               1596               0-4.658730055E+009.8021709959E-01+
*       1.9999994299E+00               0
GRID*               1597               0-1.874646953E-05-4.696449387E+00+
*       8.0000012309E+00               0
GRID*               1598               02.6389743675E+004.0030156402E+00+
*       8.0000013161E+00               0
GRID*               1599               01.8177373536E+004.4419785507E+00+
*       7.9999995627E+00               0
GRID*               1600               0-4.750000000E+005.3548173036E-02+
*       -2.972570983E-08               0
GRID*               1601               0-4.750000000E+005.3548243065E-02+
*       9.9999997826E-01               0
GRID*               1602               0-2.638938723E+00-3.895942751E+00+
*       4.9999987325E+00               0
GRID*               1603               0-2.638969256E+00-3.895922656E+00+
*       6.0000009122E+00               0
GRID*               1604               04.6587325500E+009.8020300568E-01+
*       4.0000013140E+00               0
GRID*               1605               04.6587276222E+009.8023101751E-01+
*       2.9999995934E+00               0
GRID*               1606               04.3884161236E+001.8713156874E+00+
*       2.9999984006E+00               0
GRID*               1607               04.3884128885E+001.8713231912E+00+
*       3.9999979695E+00               0
GRID*               1608               04.3884256290E+00-1.764197370E+00+
*       9.9999999436E+00               0
GRID*               1609               04.3884241491E+00-1.764200826E+00+
*       9.0000001684E+00               0
GRID*               1610               0-3.949478205E+002.6925101116E+00+
*       3.0000003422E+00               0
GRID*               1611               0-1.817745546E+00-4.334879312E+00+
*       1.0000000175E+00               0
GRID*               1612               0-1.817744270E+00-4.334879774E+00+
*       1.9999999933E+00               0
GRID*               1613               0-9.266960110E-014.7122731747E+00+
*       6.9999990500E+00               0
GRID*               1614               0-9.266825329E-014.7122763617E+00+
*       7.9999999239E+00               0
GRID*               1615               03.3587737408E+00-3.305189572E+00+
*       4.9999983471E+00               0
GRID*               1616               03.3587737846E+00-3.305189535E+00+
*       5.9999985249E+00               0
GRID*               1617               0-1.817737666E+00-4.334882183E+00+
*       4.9999993121E+00               0
GRID*               1618               0-9.266868350E-014.7122753233E+00+
*       2.9999995181E+00               0
GRID*               1619               0-9.266914130E-014.7122742407E+00+
*       3.9999991128E+00               0
GRID*               1620               0-9.266789987E-01-4.605181021E+00+
*       9.9999999836E+00               0
GRID*               1621               0-9.266800072E-01-4.605180755E+00+
*       9.0000000073E+00               0
GRID*               1622               0-3.358766128E+00-3.305197665E+00+
*       3.0000006911E+00               0
GRID*               1623               0-4.658728389E+00-8.731304033E-01+
*       9.9999999527E+00               0
GRID*               1624               0-4.388428676E+00-1.764190346E+00+
*       9.0000004977E+00               0
GRID*               1625               0-4.388425543E+00-1.764197578E+00+
*       1.0000000031E+01               0
GRID*               1626               03.9494789773E+00-2.585412654E+00+
*       1.0000000957E+00               0
GRID*               1627               03.9494780127E+00-2.585413956E+00+
*       2.0000002239E+00               0
GRID*               1628               0-2.845618096E-05-4.696449387E+00+
*       6.0000017062E+00               0
GRID*               1629               0-2.983612375E-05-4.696449387E+00+
*       7.0000018550E+00               0
GRID*               1630               0-4.750000000E+005.3547920810E-02+
*       6.9999998561E+00               0
GRID*               1631               02.6389294258E+004.0030451783E+00+
*       3.9999979806E+00               0
GRID*               1632               02.6389387808E+004.0030390308E+00+
*       4.9999987343E+00               0
GRID*               1633               0-3.358773727E+003.4122857813E+00+
*       4.9999983462E+00               0
GRID*               1634               0-3.358770157E+003.4122895576E+00+
*       3.9999986142E+00               0
GRID*               1635               0-3.949478653E+002.6925094977E+00+
*       4.0000003607E+00               0
GRID*               1636               0-3.949478971E+00-2.585412663E+00+
*       8.9999999043E+00               0
GRID*               1637               0-3.949480530E+00-2.585410576E+00+
*       1.0000000051E+01               0
GRID*               1638               0-4.750000000E+005.3548313993E-02+
*       3.0000001439E+00               0
GRID*               1639               0-4.750000000E+005.3548193974E-02+
*       4.0000001145E+00               0
GRID*               1640               0-4.750000000E+005.3548040722E-02+
*       5.9999998855E+00               0
GRID*               1641               02.6389806521E+00-3.895915155E+00+
*       2.9999982764E+00               0
GRID*               1642               0-2.638962959E+00-3.895926800E+00+
*       9.0000004738E+00               0
GRID*               1643               0-1.817749078E+00-4.334878033E+00+
*       9.0000002762E+00               0
GRID*               1644               04.6587337393E+009.8019621848E-01+
*       5.0000018785E+00               0
GRID*               1645               04.6587276128E+00-8.731347601E-01+
*       7.0000004064E+00               0
GRID*               1646               0-3.949480453E+002.6925070656E+00+
*       7.9999999313E+00               0
GRID*               1647               0-3.949480102E+002.6925075367E+00+
*       6.9999999378E+00               0
GRID*               1648               0-9.266828201E-01-4.605180085E+00+
*       8.0000001629E+00               0
GRID*               1649               0-9.266959966E-01-4.605176987E+00+
*       3.0000009501E+00               0
GRID*               1650               0-3.358750738E+003.4123101889E+00+
*       9.0000005220E+00               0
GRID*               1651               0-3.358748631E+003.4123124265E+00+
*       8.0000007906E+00               0
GRID*               1652               03.9494806685E+002.6925067984E+00+
*       -1.605044748E-08               0
GRID*               1653               03.9494806352E+002.6925068290E+00+
*       1.0000000001E+00               0
GRID*               1654               0-5.585250817E-094.8035455826E+00+
*       5.0000000000E+00               0
GRID*               1655               02.8456238610E-054.8035455826E+00+
*       6.0000017062E+00               0
GRID*               1656               04.3884204979E+00-1.764209283E+00+
*       8.0000008086E+00               0
GRID*               1657               0-1.817746012E+004.4419753955E+00+
*       1.0000000007E+01               0
GRID*               1658               0-1.817745590E+004.4419755352E+00+
*       8.9999999830E+00               0
GRID*               1659               0-2.638953303E+004.0030294817E+00+
*       9.0000002633E+00               0
GRID*               1660               0-2.638957374E+004.0030268225E+00+
*       9.9999999426E+00               0
GRID*               1661               03.9494805366E+00-2.585410567E+00+
*       -5.094601210E-08               0
GRID*               1662               04.3884338264E+00-1.764178415E+00+
*       2.9999986797E+00               0
GRID*               1663               0-9.266828347E-014.7122762743E+00+
*       1.9999998370E+00               0
GRID*               1664               09.2669600761E-01-4.605176984E+00+
*       6.9999990499E+00               0
GRID*               1665               01.8177423793E+00-4.334880460E+00+
*       7.0000001662E+00               0
GRID*               1666               0-1.817745870E+004.4419754544E+00+
*       -2.142297766E-08               0
GRID*               1667               0-1.817749123E+004.4419742559E+00+
*       9.9999972393E-01               0
GRID*               1668               0-4.658733742E+009.8019620751E-01+
*       4.9999981215E+00               0
GRID*               1669               03.9494806246E+002.6925068640E+00+
*       1.0000000049E+01               0
GRID*               1670               0-4.750000000E+005.3548344121E-02+
*       2.0000000482E+00               0
GRID*               1671               0-4.658728434E+00-8.731301791E-01+
*       -5.751309130E-09               0
GRID*               1672               0-4.658726958E+00-8.731384674E-01+
*       9.9999948024E-01               0
GRID*               1673               03.9494800962E+002.6925075460E+00+
*       3.0000000622E+00               0
GRID*               1674               03.9494805806E+00-2.585410501E+00+
*       1.0000000018E+01               0
GRID*               1675               03.9494805458E+00-2.585410532E+00+
*       9.0000000007E+00               0
GRID*               1676               0-9.266720407E-01-4.605182646E+00+
*       9.9999950863E-01               0
GRID*               1677               0-9.266825182E-01-4.605180173E+00+
*       2.0000000763E+00               0
GRID*               1678               0-1.817742411E+004.4419766870E+00+
*       7.0000001667E+00               0
GRID*               1679               0-1.817744312E+004.4419759970E+00+
*       8.0000000073E+00               0
GRID*               1680               03.9494790901E+00-2.585412485E+00+
*       5.0000002235E+00               0
GRID*               1681               0-1.817734817E+004.4419794743E+00+
*       3.0000007131E+00               0
GRID*               1682               0-4.388433758E+00-1.764178572E+00+
*       8.0000012744E+00               0
GRID*               1683               04.3884286807E+00-1.764190336E+00+
*       9.9999950235E-01               0
GRID*               1684               04.3884337628E+00-1.764178562E+00+
*       1.9999987256E+00               0
GRID*               1685               09.2669814103E-01-4.605176475E+00+
*       5.9999987537E+00               0
GRID*               1686               01.8177401257E+004.4419775185E+00+
*       3.9999995898E+00               0
GRID*               1687               0-4.658727611E+00-8.731347710E-01+
*       2.9999995936E+00               0
GRID*               1688               0-2.638943864E+004.0030356856E+00+
*       8.0000010764E+00               0
GRID*               1689               04.3884133584E+001.8713221104E+00+
*       4.9999981977E+00               0
GRID*               1690               04.3884215003E+001.8713032527E+00+
*       5.9999994947E+00               0
GRID*               1691               0-3.358756512E+003.4123040481E+00+
*       1.0000000002E+01               0
GRID*               1692               0-1.817745970E+00-4.334879172E+00+
*       -6.360862221E-09               0
GRID*               1693               0-9.266791919E-01-4.605180983E+00+
*       -7.635949800E-09               0
GRID*               1694               0-4.658728447E+009.8022641396E-01+
*       1.0000000005E+01               0
GRID*               1695               0-4.750000000E+005.3548061845E-02+
*       1.0000000030E+01               0
GRID*               1696               02.9847306316E-05-4.696449387E+00+
*       2.9999981450E+00               0
GRID*               1697               04.6587288510E+009.8022396905E-01+
*       9.0000001134E+00               0
GRID*               1698               03.3587565043E+003.4123040560E+00+
*       -1.663319200E-09               0
GRID*               1699               03.3587507302E+003.4123101968E+00+
*       9.9999947804E-01               0
GRID*               1700               0-9.266957032E-014.7122732339E+00+
*       4.9999987868E+00               0
GRID*               1701               0-9.266981443E-014.7122726656E+00+
*       5.9999987537E+00               0
GRID*               1702               0-3.358757610E+00-3.305206688E+00+
*       9.0000000481E+00               0
GRID*               1703               0-3.358760894E+00-3.305203194E+00+
*       8.0000003490E+00               0
GRID*               1704               0-3.949479567E+00-2.585411843E+00+
*       3.9999999327E+00               0
GRID*               1705               0-3.358773777E+00-3.305189543E+00+
*       4.0000014751E+00               0
GRID*               1706               04.3884255473E+00-1.764197568E+00+
*       -3.101967303E-08               0
GRID*               1707               0-1.817737364E+004.4419785464E+00+
*       2.0000004373E+00               0
GRID*               1708               0-2.638957147E+004.0030269741E+00+
*       2.0344418256E-08               0
GRID*               1709               0-2.638963035E+004.0030230883E+00+
*       9.9999952709E-01               0
GRID*               1710               0-4.750000000E+005.3548117324E-02+
*       5.0000000000E+00               0
GRID*               1711               01.8177355700E+00-4.334882957E+00+
*       4.0000008126E+00               0
GRID*               1712               02.6389692649E+00-3.895922649E+00+
*       3.9999990878E+00               0
GRID*               1713               02.6389438043E+00-3.895939403E+00+
*       8.0000010755E+00               0
GRID*               1714               02.6389532404E+00-3.895933193E+00+
*       9.0000002629E+00               0
GRID*               1715               0-4.658725242E+00-8.731482278E-01+
*       1.9999988417E+00               0
GRID*               1716               0-4.388425625E+00-1.764197381E+00+
*       5.6379971186E-08               0
GRID*               1717               0-4.388424145E+00-1.764200836E+00+
*       9.9999983164E-01               0
GRID*               1718               03.3587565389E+00-3.305207850E+00+
*       1.0000000003E+01               0
GRID*               1719               03.3587507527E+00-3.305213979E+00+
*       9.0000005226E+00               0
GRID*               1720               05.8680156035E-06-4.696449387E+00+
*       9.9999962555E-01               0
GRID*               1721               01.8757654108E-05-4.696449387E+00+
*       1.9999987691E+00               0
GRID*               1722               0-1.817740136E+004.4419775142E+00+
*       6.0000004102E+00               0
GRID*               1723               0-9.266720557E-014.7122788364E+00+
*       9.0000004912E+00               0
GRID*               1724               03.9494786469E+002.6925095070E+00+
*       5.9999996393E+00               0
GRID*               1725               0-1.432512600E-07-4.696449395E+00+
*       4.8391626551E-08               0
GRID*               1726               03.9494804468E+002.6925070749E+00+
*       2.0000000687E+00               0
GRID*               1727               02.6389573648E+004.0030268287E+00+
*       5.7446355568E-08               0
GRID*               1728               02.6389532941E+004.0030294879E+00+
*       9.9999973665E-01               0
GRID*               1729               0-1.544847490E-074.8035455903E+00+
*       9.9999999512E+00               0
GRID*               1730               0-9.266792067E-014.7122771690E+00+
*       1.0000000007E+01               0
GRID*               1731               04.6587283912E+00-8.731303923E-01+
*       4.7289310456E-08               0
GRID*               1732               04.6587252539E+009.8024447448E-01+
*       1.9999988416E+00               0
GRID*               1733               04.3884205004E+001.8713055445E+00+
*       1.9999991912E+00               0
GRID*               1734               03.3587653816E+003.4122946201E+00+
*       7.0000008391E+00               0
GRID*               1735               03.3587701489E+003.4122895655E+00+
*       6.0000013858E+00               0
GRID*               1736               0-3.358756367E+003.4123041934E+00+
*       4.7834933833E-08               0
GRID*               1737               0-3.358757602E+003.4123028904E+00+
*       9.9999995312E-01               0
GRID*               1738               04.6587284005E+009.8022664924E-01+
*       9.9999999521E+00               0
GRID*               1739               04.3884255436E+001.8712938288E+00+
*       1.0000000030E+01               0
GRID*               1740               0-3.949480574E+00-2.585410510E+00+
*       -1.765418472E-08               0
GRID*               1741               0-3.949480540E+00-2.585410541E+00+
*       9.9999999932E-01               0
GRID*               1742               03.3587608781E+003.4122994051E+00+
*       8.0000003486E+00               0
GRID*               1743               02.6389573144E+00-3.895930521E+00+
*       9.9999999425E+00               0
GRID*               1744               0-2.638957078E+00-3.895930679E+00+
*       9.9999999806E+00               0
GRID*               1745               0-1.817745827E+00-4.334879231E+00+
*       1.0000000022E+01               0
GRID*               1746               09.2668001817E-01-4.605180753E+00+
*       9.9999999266E-01               0
GRID*               1747               0-3.358756386E+00-3.305208002E+00+
*       9.9999999542E+00               0
GRID*               1748               02.6389338052E+00-3.895945985E+00+
*       7.0000018297E+00               0
GRID*               1749               0-3.949478007E+00-2.585413966E+00+
*       7.9999997761E+00               0
GRID*               1750               0-2.638957305E+00-3.895930528E+00+
*       5.7479051137E-08               0
GRID*               1751               09.2667900969E-01-4.605181019E+00+
*       1.6402633042E-08               0
GRID*               1752               01.8177460018E+004.4419753998E+00+
*       -6.742971741E-09               0
GRID*               1753               01.8177455793E+004.4419755394E+00+
*       1.0000000170E+00               0
GRID*               1754               09.2667900267E-014.7122772096E+00+
*       9.9999999832E+00               0
GRID*               1755               04.7500000000E+005.3548073033E-02+
*       -2.970332729E-08               0
GRID*               1756               0-3.358756531E+00-3.305207858E+00+
*       -3.308197282E-09               0
GRID*               1757               01.8177459798E+00-4.334879168E+00+
*       1.0000000006E+01               0
GRID*               1758               01.8177490881E+00-4.334878028E+00+
*       9.9999972379E-01               0
GRID*               1759               01.8177458370E+00-4.334879227E+00+
*       -2.157822898E-08               0
GRID*               1760               09.2667919574E-014.7122771712E+00+
*       -7.186509950E-09               0
GRID*               1761               09.7544422378E-01-4.850379046E+00+
*       9.0000004259E+00               0
GRID*               1762               09.7545473116E-01-4.850376566E+00+
*       7.9999998003E+00               0
GRID*               1763               01.9134151113E+00-4.565849664E+00+
*       8.0000001135E+00               0
GRID*               1764               01.9134164756E+00-4.565849166E+00+
*       9.0000000297E+00               0
GRID*               1765               02.7778498955E+004.2108942503E+00+
*       1.0000000000E+01               0
GRID*               1766               02.7778558820E+004.2108902988E+00+
*       9.0000004141E+00               0
GRID*               1767               01.9134202204E+004.6729440398E+00+
*       9.0000001986E+00               0
GRID*               1768               01.9134169562E+004.6729452430E+00+
*       1.0000000000E+01               0
GRID*               1769               04.9039280079E+00-9.218841392E-01+
*       2.9999988742E+00               0
GRID*               1770               04.9039264097E+00-9.218932061E-01+
*       1.9999994054E+00               0
GRID*               1771               05.0000000000E+005.3548127413E-02+
*       2.0000000000E+00               0
GRID*               1772               05.0000000000E+005.3548127413E-02+
*       3.0000000000E+00               0
GRID*               1773               03.5355425219E+003.5890708576E+00+
*       3.0000008141E+00               0
GRID*               1774               03.5355248654E+003.5890895827E+00+
*       1.9999993275E+00               0
GRID*               1775               02.7778360594E+004.2109033311E+00+
*       1.9999990405E+00               0
GRID*               1776               02.7778260155E+004.2109099344E+00+
*       2.9999983463E+00               0
GRID*               1777               0-4.157345664E+002.8314025714E+00+
*       2.0000002376E+00               0
GRID*               1778               0-4.157346574E+002.8314013507E+00+
*       1.0000001496E+00               0
GRID*               1779               0-4.619398757E+001.9669570044E+00+
*       9.9999954043E-01               0
GRID*               1780               0-4.619403952E+001.9669449615E+00+
*       1.9999987818E+00               0
GRID*               1781               04.9039251506E+00-9.219003491E-01+
*       9.9999982629E-01               0
GRID*               1782               05.0000000000E+005.3548127413E-02+
*       1.0000000000E+00               0
GRID*               1783               0-4.619395556E+001.9669643743E+00+
*       0.0000000000E+00               0
GRID*               1784               0-4.903924684E+001.0289994116E+00+
*       0.0000000000E+00               0
GRID*               1785               0-4.903925162E+001.0289965944E+00+
*       9.9999982629E-01               0
GRID*               1786               0-4.157346029E+00-2.724305669E+00+
*       5.9999998070E+00               0
GRID*               1787               0-4.157346479E+00-2.724305064E+00+
*       4.9999998505E+00               0
GRID*               1788               0-3.535550486E+00-3.481966217E+00+
*       5.0000014818E+00               0
GRID*               1789               0-3.535547076E+00-3.481969833E+00+
*       6.0000011933E+00               0
GRID*               1790               0-5.000000000E+005.3548115637E-02+
*       9.0000000000E+00               0
GRID*               1791               0-5.000000000E+005.3548115637E-02+
*       8.0000000000E+00               0
GRID*               1792               0-4.903926407E+00-9.218932176E-01+
*       8.0000005946E+00               0
GRID*               1793               0-4.903925148E+00-9.219003607E-01+
*       9.0000001737E+00               0
GRID*               1794               04.6193832213E+00-1.859896756E+00+
*       5.0000018017E+00               0
GRID*               1795               04.6193915222E+00-1.859877506E+00+
*       4.0000005912E+00               0
GRID*               1796               04.9039294462E+00-9.218759793E-01+
*       3.9999983974E+00               0
GRID*               1797               04.9039300598E+00-9.218724983E-01+
*       4.9999981956E+00               0
GRID*               1798               04.9039246727E+00-9.219031667E-01+
*       1.0000000000E+01               0
GRID*               1799               04.9039231646E+00-9.219116164E-01+
*       9.0000004972E+00               0
GRID*               1800               05.0000000000E+005.3548127413E-02+
*       9.0000000000E+00               0
GRID*               1801               05.0000000000E+005.3548127413E-02+
*       1.0000000000E+01               0
GRID*               1802               0-2.777873878E+004.2108784674E+00+
*       2.9999983427E+00               0
GRID*               1803               0-2.777867426E+004.2108827089E+00+
*       1.9999987885E+00               0
GRID*               1804               0-3.535537669E+003.5890760050E+00+
*       1.9999995998E+00               0
GRID*               1805               0-3.535542321E+003.5890710712E+00+
*       2.9999992076E+00               0
GRID*               1806               0-3.535524882E+00-3.481993371E+00+
*       1.9999993275E+00               0
GRID*               1807               0-3.535527038E+00-3.481991084E+00+
*       9.9999951071E-01               0
GRID*               1808               0-2.777845624E+00-4.103800713E+00+
*       9.9999970716E-01               0
GRID*               1809               0-2.777835995E+00-4.103807051E+00+
*       1.9999990405E+00               0
GRID*               1810               09.7545545526E-014.9574725864E+00+
*       8.0000002480E+00               0
GRID*               1811               09.7545963024E-014.9574716007E+00+
*       7.0000004952E+00               0
GRID*               1812               03.0416589862E-055.0535455826E+00+
*       7.0000017489E+00               0
GRID*               1813               01.9219525122E-055.0535455826E+00+
*       8.0000010965E+00               0
GRID*               1814               01.9134108014E+00-4.565851238E+00+
*       6.0000003791E+00               0
GRID*               1815               01.9134084538E+00-4.565852095E+00+
*       5.0000005238E+00               0
GRID*               1816               02.7778312372E+00-4.103810184E+00+
*       5.0000012876E+00               0
GRID*               1817               02.7778216132E+00-4.103816519E+00+
*       6.0000019541E+00               0
GRID*               1818               09.7545248067E-014.9574732887E+00+
*       9.0000000709E+00               0
GRID*               1819               06.1287545360E-065.0535455826E+00+
*       9.0000003407E+00               0
GRID*               1820               09.7547061056E-014.9574690084E+00+
*       4.0000011441E+00               0
GRID*               1821               09.7546832992E-014.9574695468E+00+
*       3.0000010081E+00               0
GRID*               1822               0-3.042836151E-055.0535455826E+00+
*       2.9999982511E+00               0
GRID*               1823               0-2.892588532E-055.0535455826E+00+
*       3.9999983317E+00               0
GRID*               1824               05.8888423582E-09-4.946449395E+00+
*       1.0000000000E+01               0
GRID*               1825               0-6.128754075E-06-4.946449387E+00+
*       9.0000003407E+00               0
GRID*               1826               09.7545141625E-01-4.850377374E+00+
*       1.0000000000E+01               0
GRID*               1827               0-4.157348107E+002.8313993031E+00+
*       0.0000000000E+00               0
GRID*               1828               0-4.619385843E+00-1.859890678E+00+
*       2.9999985845E+00               0
GRID*               1829               0-4.619390250E+00-1.859880458E+00+
*       1.9999992284E+00               0
GRID*               1830               0-4.157347708E+00-2.724303415E+00+
*       1.9999999690E+00               0
GRID*               1831               0-4.157347364E+00-2.724303877E+00+
*       2.9999999358E+00               0
GRID*               1832               0-4.903928006E+00-9.218841507E-01+
*       7.0000011258E+00               0
GRID*               1833               0-4.903929444E+00-9.218759909E-01+
*       6.0000016026E+00               0
GRID*               1834               0-4.619391518E+00-1.859877517E+00+
*       5.9999994088E+00               0
GRID*               1835               0-4.619404001E+00-1.859848570E+00+
*       7.0000012298E+00               0
GRID*               1836               02.7778673499E+00-4.103786410E+00+
*       1.9999987885E+00               0
GRID*               1837               02.7778558200E+00-4.103794001E+00+
*       9.9999958590E-01               0
GRID*               1838               03.5355342238E+00-3.481983464E+00+
*       9.9999989054E-01               0
GRID*               1839               03.5355376856E+00-3.481979793E+00+
*       1.9999995998E+00               0
GRID*               1840               0-1.913405862E+00-4.565853042E+00+
*       6.9999993168E+00               0
GRID*               1841               0-1.913406533E+00-4.565852797E+00+
*       5.9999993584E+00               0
GRID*               1842               0-9.754642580E-01-4.850374317E+00+
*       6.0000007688E+00               0
GRID*               1843               0-9.754596317E-01-4.850375409E+00+
*       7.0000004952E+00               0
GRID*               1844               03.5355328873E+003.5890810637E+00+
*       1.0000000000E+01               0
GRID*               1845               03.5355341987E+003.5890796846E+00+
*       9.0000001095E+00               0
GRID*               1846               0-4.619390265E+001.9669766878E+00+
*       8.0000007716E+00               0
GRID*               1847               0-4.619385857E+001.9669869068E+00+
*       7.0000014155E+00               0
GRID*               1848               0-4.903923816E+001.0290042325E+00+
*       7.0000002805E+00               0
GRID*               1849               0-4.903921419E+001.0290178335E+00+
*       8.0000010805E+00               0
GRID*               1850               04.1573465711E+002.8314013556E+00+
*       4.9999998505E+00               0
GRID*               1851               04.1573470332E+002.8314007360E+00+
*       3.9999998951E+00               0
GRID*               1852               03.5355503568E+003.5890625486E+00+
*       4.0000014734E+00               0
GRID*               1853               03.5355504696E+003.5890624290E+00+
*       5.0000014818E+00               0
GRID*               1854               0-4.619382670E+001.9669942941E+00+
*       6.0000018819E+00               0
GRID*               1855               0-4.903928822E+001.0289758293E+00+
*       5.9999986132E+00               0
GRID*               1856               0-4.619391534E+001.9669737471E+00+
*       4.0000005912E+00               0
GRID*               1857               0-4.619404021E+001.9669448016E+00+
*       2.9999987702E+00               0
GRID*               1858               0-4.903928019E+001.0289803844E+00+
*       2.9999988742E+00               0
GRID*               1859               0-4.903929457E+001.0289722245E+00+
*       3.9999983974E+00               0
GRID*               1860               0-9.754683855E-01-4.850373343E+00+
*       5.0000010128E+00               0
GRID*               1861               0-9.754706123E-01-4.850372817E+00+
*       4.0000011441E+00               0
GRID*               1862               02.8925884856E-05-4.946449387E+00+
*       3.9999983317E+00               0
GRID*               1863               05.8792205991E-09-4.946449387E+00+
*       5.0000000000E+00               0
GRID*               1864               09.7545964329E-01-4.850375406E+00+
*       2.9999995048E+00               0
GRID*               1865               09.7545546823E-01-4.850376392E+00+
*       1.9999997520E+00               0
GRID*               1866               01.9134084478E+00-4.565852097E+00+
*       2.0000005249E+00               0
GRID*               1867               01.9134058726E+00-4.565853038E+00+
*       3.0000006832E+00               0
GRID*               1868               0-4.157345666E+00-2.724306155E+00+
*       6.9999997720E+00               0
GRID*               1869               05.0000000000E+005.3548127413E-02+
*       7.0000000000E+00               0
GRID*               1870               05.0000000000E+005.3548127413E-02+
*       6.0000000000E+00               0
GRID*               1871               04.9039294547E+001.0289722360E+00+
*       6.0000016026E+00               0
GRID*               1872               04.9039280166E+001.0289803959E+00+
*       7.0000011258E+00               0
GRID*               1873               04.1573473707E+00-2.724303867E+00+
*       7.0000000642E+00               0
GRID*               1874               04.1573469477E+00-2.724304435E+00+
*       6.0000001049E+00               0
GRID*               1875               04.6193826613E+00-1.859898055E+00+
*       6.0000018819E+00               0
GRID*               1876               04.6193858471E+00-1.859890667E+00+
*       7.0000014155E+00               0
GRID*               1877               0-4.157348107E+002.8313993031E+00+
*       1.0000000000E+01               0
GRID*               1878               0-4.157348038E+002.8313993876E+00+
*       9.0000000088E+00               0
GRID*               1879               0-4.619394024E+001.9669679759E+00+
*       9.0000002243E+00               0
GRID*               1880               0-4.619395556E+001.9669643743E+00+
*       1.0000000000E+01               0
GRID*               1881               0-2.777867340E+00-4.103786417E+00+
*       8.0000012115E+00               0
GRID*               1882               0-2.777873789E+00-4.103782171E+00+
*       7.0000016573E+00               0
GRID*               1883               0-1.913408437E+00-4.565852102E+00+
*       7.9999994751E+00               0
GRID*               1884               0-1.913408473E+004.6729483260E+00+
*       5.0000005238E+00               0
GRID*               1885               0-1.913406562E+004.6729490230E+00+
*       4.0000006416E+00               0
GRID*               1886               0-2.777862278E+004.2108860935E+00+
*       3.9999991450E+00               0
GRID*               1887               0-2.777831299E+004.2109064605E+00+
*       5.0000012876E+00               0
GRID*               1888               0-2.777821603E+00-4.103816526E+00+
*       3.9999980459E+00               0
GRID*               1889               0-2.777825956E+00-4.103813661E+00+
*       2.9999983463E+00               0
GRID*               1890               0-1.913413119E+00-4.565850392E+00+
*       2.9999997645E+00               0
GRID*               1891               0-1.913410791E+00-4.565851242E+00+
*       3.9999996209E+00               0
GRID*               1892               04.9039214069E+00-9.219215881E-01+
*       8.0000010805E+00               0
GRID*               1893               05.0000000000E+005.3548127413E-02+
*       8.0000000000E+00               0
GRID*               1894               0-4.903923176E+001.0290078617E+00+
*       9.0000004972E+00               0
GRID*               1895               0-3.535542330E+00-3.481974868E+00+
*       7.0000007924E+00               0
GRID*               1896               04.9039231742E+001.0290078733E+00+
*       9.9999950275E-01               0
GRID*               1897               04.9039246821E+001.0289994231E+00+
*       0.0000000000E+00               0
GRID*               1898               04.6193955518E+001.9669643852E+00+
*       0.0000000000E+00               0
GRID*               1899               04.6193940192E+001.9669679868E+00+
*       9.9999977573E-01               0
GRID*               1900               01.9134065515E+004.6729490275E+00+
*       5.9999993584E+00               0
GRID*               1901               01.9134084618E+004.6729483305E+00+
*       4.9999994762E+00               0
GRID*               1902               09.7546838383E-014.9574695341E+00+
*       5.0000010128E+00               0
GRID*               1903               09.7546425644E-014.9574705085E+00+
*       6.0000007688E+00               0
GRID*               1904               03.5355248906E+00-3.481993362E+00+
*       8.0000006725E+00               0
GRID*               1905               03.5355425471E+00-3.481974637E+00+
*       6.9999991859E+00               0
GRID*               1906               04.1573477149E+00-2.724303405E+00+
*       8.0000000310E+00               0
GRID*               1907               0-4.903930058E+00-9.218725098E-01+
*       5.0000018044E+00               0
GRID*               1908               0-4.903928809E+00-9.218795956E-01+
*       4.0000013868E+00               0
GRID*               1909               0-4.619382657E+00-1.859898066E+00+
*       3.9999981181E+00               0
GRID*               1910               0-4.619383217E+00-1.859896767E+00+
*       4.9999981983E+00               0
GRID*               1911               02.7778498404E+00-4.103797946E+00+
*       0.0000000000E+00               0
GRID*               1912               03.5355329241E+00-3.481984855E+00+
*       0.0000000000E+00               0
GRID*               1913               04.9039288108E+00-9.218795841E-01+
*       5.9999986132E+00               0
GRID*               1914               05.0000000000E+005.3548127413E-02+
*       5.0000000000E+00               0
GRID*               1915               03.5355470846E+00-3.481969825E+00+
*       3.9999988067E+00               0
GRID*               1916               03.5355423378E+00-3.481974859E+00+
*       2.9999992076E+00               0
GRID*               1917               04.1573456729E+00-2.724306145E+00+
*       3.0000002280E+00               0
GRID*               1918               04.1573460352E+00-2.724305659E+00+
*       4.0000001930E+00               0
GRID*               1919               04.9039264187E+001.0289894629E+00+
*       8.0000005946E+00               0
GRID*               1920               09.7545471820E-014.9574727604E+00+
*       2.0000001997E+00               0
GRID*               1921               09.7544421103E-014.9574752411E+00+
*       9.9999957410E-01               0
GRID*               1922               0-6.140529472E-065.0535455826E+00+
*       9.9999965929E-01               0
GRID*               1923               0-1.923129879E-055.0535455826E+00+
*       1.9999989035E+00               0
GRID*               1924               04.6194039475E+001.9669449724E+00+
*       8.0000012182E+00               0
GRID*               1925               04.6194040165E+001.9669448124E+00+
*       7.0000012298E+00               0
GRID*               1926               04.1573457576E+002.8314024463E+00+
*       6.9999997720E+00               0
GRID*               1927               04.1573456571E+002.8314025812E+00+
*       7.9999997624E+00               0
GRID*               1928               0-2.777826025E+004.2109099278E+00+
*       7.0000016537E+00               0
GRID*               1929               0-2.777821671E+004.2109127903E+00+
*       6.0000019541E+00               0
GRID*               1930               0-3.535550365E+003.5890625403E+00+
*       5.9999985266E+00               0
GRID*               1931               0-3.535542530E+003.5890708493E+00+
*       6.9999991858E+00               0
GRID*               1932               0-5.888845134E-095.0535455903E+00+
*       0.0000000000E+00               0
GRID*               1933               0-9.754514149E-014.9574735631E+00+
*       0.0000000000E+00               0
GRID*               1934               0-9.754524922E-014.9574732864E+00+
*       9.9999992908E-01               0
GRID*               1935               0-4.157347040E+002.8314007262E+00+
*       6.0000001049E+00               0
GRID*               1936               0-4.157346578E+002.8314013458E+00+
*       5.0000001495E+00               0
GRID*               1937               0-4.619383230E+001.9669929956E+00+
*       5.0000018017E+00               0
GRID*               1938               02.7778738680E+004.2108784739E+00+
*       7.0000016573E+00               0
GRID*               1939               02.7778622683E+004.2108861001E+00+
*       6.0000008550E+00               0
GRID*               1940               01.9134058804E+004.6729492724E+00+
*       6.9999993168E+00               0
GRID*               1941               09.7546426958E-01-4.850374315E+00+
*       3.9999992312E+00               0
GRID*               1942               09.7546839706E-01-4.850373341E+00+
*       4.9999989872E+00               0
GRID*               1943               05.0000000000E+005.3548127413E-02+
*       4.0000000000E+00               0
GRID*               1944               04.6193987523E+001.9669570153E+00+
*       9.0000004596E+00               0
GRID*               1945               04.1573465674E+002.8314013605E+00+
*       8.9999998504E+00               0
GRID*               1946               01.9134151199E+004.6729459010E+00+
*       1.9999998865E+00               0
GRID*               1947               01.9134131382E+004.6729466241E+00+
*       2.9999997645E+00               0
GRID*               1948               0-4.903926421E+001.0289894513E+00+
*       1.9999994054E+00               0
GRID*               1949               0-1.921952472E-05-4.946449387E+00+
*       8.0000010965E+00               0
GRID*               1950               02.7778674164E+004.2108827155E+00+
*       8.0000012115E+00               0
GRID*               1951               01.9134084558E+004.6729483327E+00+
*       7.9999994751E+00               0
GRID*               1952               0-5.000000000E+005.3548115635E-02+
*       0.0000000000E+00               0
GRID*               1953               0-5.000000000E+005.3548115638E-02+
*       1.0000000000E+00               0
GRID*               1954               0-2.777831227E+00-4.103810190E+00+
*       4.9999987124E+00               0
GRID*               1955               0-2.777862194E+00-4.103789805E+00+
*       6.0000008550E+00               0
GRID*               1956               04.9039288194E+001.0289758408E+00+
*       4.0000013868E+00               0
GRID*               1957               04.9039238138E+001.0290042441E+00+
*       2.9999997195E+00               0
GRID*               1958               04.6193858525E+001.9669869176E+00+
*       2.9999985845E+00               0
GRID*               1959               04.6193826657E+001.9669943050E+00+
*       3.9999981181E+00               0
GRID*               1960               04.6193955511E+00-1.859868134E+00+
*       1.0000000000E+01               0
GRID*               1961               04.6193940111E+00-1.859871735E+00+
*       9.0000002243E+00               0
GRID*               1962               0-4.157345764E+002.8314024365E+00+
*       3.0000002280E+00               0
GRID*               1963               0-1.913416465E+00-4.565849170E+00+
*       9.9999997026E-01               0
GRID*               1964               0-1.913415100E+00-4.565849669E+00+
*       1.9999998865E+00               0
GRID*               1965               0-9.754683415E-014.9574695445E+00+
*       6.9999989919E+00               0
GRID*               1966               0-9.754547297E-014.9574727581E+00+
*       7.9999998003E+00               0
GRID*               1967               03.5355504947E+00-3.481966209E+00+
*       4.9999985182E+00               0
GRID*               1968               03.5355503819E+00-3.481966328E+00+
*       5.9999985266E+00               0
GRID*               1969               0-1.913408443E+00-4.565852100E+00+
*       4.9999994762E+00               0
GRID*               1970               0-9.754596418E-014.9574715984E+00+
*       2.9999995048E+00               0
GRID*               1971               0-9.754642680E-014.9574705062E+00+
*       3.9999992312E+00               0
GRID*               1972               0-9.754514047E-01-4.850377376E+00+
*       1.0000000000E+01               0
GRID*               1973               0-9.754524820E-01-4.850377096E+00+
*       9.0000000709E+00               0
GRID*               1974               0-3.535542539E+00-3.481974646E+00+
*       3.0000008141E+00               0
GRID*               1975               0-4.903924670E+00-9.219031783E-01+
*       1.0000000000E+01               0
GRID*               1976               0-4.619398738E+00-1.859860774E+00+
*       9.0000004596E+00               0
GRID*               1977               0-4.619395547E+00-1.859868145E+00+
*       1.0000000000E+01               0
GRID*               1978               04.1573464823E+00-2.724305059E+00+
*       1.0000001496E+00               0
GRID*               1979               04.1573455724E+00-2.724306280E+00+
*       2.0000002376E+00               0
GRID*               1980               0-2.891411798E-05-4.946449387E+00+
*       6.0000016683E+00               0
GRID*               1981               0-3.041658966E-05-4.946449387E+00+
*       7.0000017489E+00               0
GRID*               1982               0-5.000000000E+005.3548115637E-02+
*       7.0000000000E+00               0
GRID*               1983               02.7778216617E+004.2109127968E+00+
*       3.9999980459E+00               0
GRID*               1984               02.7778312894E+004.2109064671E+00+
*       4.9999987124E+00               0
GRID*               1985               0-3.535550478E+003.5890624207E+00+
*       4.9999985182E+00               0
GRID*               1986               0-3.535547068E+003.5890660372E+00+
*       3.9999988067E+00               0
GRID*               1987               0-4.157346127E+002.8314019505E+00+
*       4.0000001930E+00               0
GRID*               1988               0-4.157346476E+00-2.724305069E+00+
*       8.9999998504E+00               0
GRID*               1989               0-4.157348010E+00-2.724303020E+00+
*       1.0000000000E+01               0
GRID*               1990               0-5.000000000E+005.3548115638E-02+
*       3.0000000000E+00               0
GRID*               1991               0-5.000000000E+005.3548115638E-02+
*       4.0000000000E+00               0
GRID*               1992               0-5.000000000E+005.3548115637E-02+
*       6.0000000000E+00               0
GRID*               1993               02.7778737988E+00-4.103782165E+00+
*       2.9999983427E+00               0
GRID*               1994               0-2.777855810E+00-4.103794007E+00+
*       9.0000004141E+00               0
GRID*               1995               0-1.913420200E+00-4.565847806E+00+
*       9.0000001986E+00               0
GRID*               1996               04.9039300682E+001.0289687549E+00+
*       5.0000018044E+00               0
GRID*               1997               04.9039238043E+00-9.219079872E-01+
*       7.0000002805E+00               0
GRID*               1998               0-4.157347807E+002.8313996968E+00+
*       8.0000000310E+00               0
GRID*               1999               0-4.157347463E+002.8314001588E+00+
*       7.0000000642E+00               0
GRID*               2000               0-9.754554567E-01-4.850376394E+00+
*       8.0000002480E+00               0
GRID*               2001               0-9.754683316E-01-4.850373356E+00+
*       3.0000010081E+00               0
GRID*               2002               0-3.535527030E+003.5890872879E+00+
*       9.0000004893E+00               0
GRID*               2003               0-3.535524874E+003.5890895743E+00+
*       8.0000006725E+00               0
GRID*               2004               04.1573481007E+002.8313993129E+00+
*       0.0000000000E+00               0
GRID*               2005               04.1573480314E+002.8313993974E+00+
*       9.9999999125E-01               0
GRID*               2006               0-5.879509695E-095.0535455826E+00+
*       5.0000000000E+00               0
GRID*               2007               02.8914117943E-055.0535455826E+00+
*       6.0000016683E+00               0
GRID*               2008               04.6193902540E+00-1.859880447E+00+
*       8.0000007716E+00               0
GRID*               2009               0-1.913416967E+004.6729452385E+00+
*       1.0000000000E+01               0
GRID*               2010               0-1.913416495E+004.6729453986E+00+
*       9.0000000297E+00               0
GRID*               2011               0-2.777845701E+004.2108969919E+00+
*       9.0000002928E+00               0
GRID*               2012               0-2.777849905E+004.2108942437E+00+
*       1.0000000000E+01               0
GRID*               2013               04.1573480164E+00-2.724303010E+00+
*       0.0000000000E+00               0
GRID*               2014               04.6194040051E+00-1.859848559E+00+
*       2.9999987702E+00               0
GRID*               2015               0-9.754554668E-014.9574725841E+00+
*       1.9999997520E+00               0
GRID*               2016               09.7546834314E-01-4.850373353E+00+
*       6.9999989919E+00               0
GRID*               2017               01.9134131298E+00-4.565850388E+00+
*       7.0000002355E+00               0
GRID*               2018               0-1.913416967E+004.6729452385E+00+
*       0.0000000000E+00               0
GRID*               2019               0-1.913420231E+004.6729440353E+00+
*       9.9999980140E-01               0
GRID*               2020               0-4.903930070E+001.0289687434E+00+
*       4.9999981956E+00               0
GRID*               2021               04.1573481007E+002.8313993129E+00+
*       1.0000000000E+01               0
GRID*               2022               0-5.000000000E+005.3548115638E-02+
*       2.0000000000E+00               0
GRID*               2023               0-4.903924670E+00-9.219031783E-01+
*       0.0000000000E+00               0
GRID*               2024               0-4.903923162E+00-9.219116279E-01+
*       9.9999950275E-01               0
GRID*               2025               04.1573474563E+002.8314001685E+00+
*       2.9999999358E+00               0
GRID*               2026               04.1573480164E+00-2.724303010E+00+
*       1.0000000000E+01               0
GRID*               2027               04.1573479454E+00-2.724303096E+00+
*       9.0000000088E+00               0
GRID*               2028               0-9.754442122E-01-4.850379048E+00+
*       9.9999957410E-01               0
GRID*               2029               0-9.754547196E-01-4.850376568E+00+
*       2.0000001997E+00               0
GRID*               2030               0-1.913413149E+004.6729466196E+00+
*       7.0000002355E+00               0
GRID*               2031               0-1.913415131E+004.6729458965E+00+
*       8.0000001135E+00               0
GRID*               2032               04.1573464859E+00-2.724305054E+00+
*       5.0000001495E+00               0
GRID*               2033               0-1.913405891E+004.6729492679E+00+
*       3.0000006832E+00               0
GRID*               2034               0-4.619403932E+00-1.859848730E+00+
*       8.0000012182E+00               0
GRID*               2035               04.6193987425E+00-1.859860763E+00+
*       9.9999954042E-01               0
GRID*               2036               04.6194039361E+00-1.859848719E+00+
*       1.9999987818E+00               0
GRID*               2037               09.7547062383E-01-4.850372815E+00+
*       5.9999988559E+00               0
GRID*               2038               01.9134108096E+004.6729474738E+00+
*       3.9999996209E+00               0
GRID*               2039               0-4.903923802E+00-9.219079987E-01+
*       2.9999997195E+00               0
GRID*               2040               0-2.777836069E+004.2109033245E+00+
*       8.0000009595E+00               0
GRID*               2041               04.6193832258E+001.9669930065E+00+
*       4.9999981983E+00               0
GRID*               2042               04.6193915295E+001.9669737580E+00+
*       5.9999994088E+00               0
GRID*               2043               0-3.535532896E+003.5890810554E+00+
*       1.0000000000E+01               0
GRID*               2044               0-1.913416938E+00-4.565849009E+00+
*       0.0000000000E+00               0
GRID*               2045               0-9.754514047E-01-4.850377376E+00+
*       0.0000000000E+00               0
GRID*               2046               0-4.903924684E+001.0289994116E+00+
*       1.0000000000E+01               0
GRID*               2047               0-5.000000000E+005.3548115635E-02+
*       1.0000000000E+01               0
GRID*               2048               03.0428360861E-05-4.946449387E+00+
*       2.9999982511E+00               0
GRID*               2049               04.9039251599E+001.0289966060E+00+
*       9.0000001737E+00               0
GRID*               2050               03.5355328873E+003.5890810637E+00+
*       0.0000000000E+00               0
GRID*               2051               03.5355270214E+003.5890872962E+00+
*       9.9999951071E-01               0
GRID*               2052               0-9.754683954E-014.9574695318E+00+
*       4.9999989872E+00               0
GRID*               2053               0-9.754706221E-014.9574690061E+00+
*       5.9999988559E+00               0
GRID*               2054               0-3.535534215E+00-3.481983473E+00+
*       9.0000001095E+00               0
GRID*               2055               0-3.535537677E+00-3.481979801E+00+
*       8.0000004002E+00               0
GRID*               2056               0-4.157346941E+00-2.724304444E+00+
*       3.9999998951E+00               0
GRID*               2057               0-3.535550374E+00-3.481966337E+00+
*       4.0000014734E+00               0
GRID*               2058               04.6193955511E+00-1.859868134E+00+
*       0.0000000000E+00               0
GRID*               2059               0-1.913408467E+004.6729483282E+00+
*       2.0000005249E+00               0
GRID*               2060               0-2.777849905E+004.2108942437E+00+
*       0.0000000000E+00               0
GRID*               2061               0-2.777855892E+004.2108902922E+00+
*       9.9999958590E-01               0
GRID*               2062               0-5.000000000E+005.3548115638E-02+
*       5.0000000000E+00               0
GRID*               2063               01.9134065437E+00-4.565852793E+00+
*       4.0000006416E+00               0
GRID*               2064               02.7778622038E+00-4.103789798E+00+
*       3.9999991450E+00               0
GRID*               2065               02.7778360052E+00-4.103807045E+00+
*       8.0000009595E+00               0
GRID*               2066               02.7778456335E+00-4.103800706E+00+
*       9.0000002928E+00               0
GRID*               2067               0-4.903921405E+00-9.219215996E-01+
*       1.9999989195E+00               0
GRID*               2068               0-4.619395547E+00-1.859868145E+00+
*       0.0000000000E+00               0
GRID*               2069               0-4.619394007E+00-1.859871746E+00+
*       9.9999977573E-01               0
GRID*               2070               03.5355329241E+00-3.481984855E+00+
*       1.0000000000E+01               0
GRID*               2071               03.5355270466E+00-3.481991076E+00+
*       9.0000004893E+00               0
GRID*               2072               06.1405284547E-06-4.946449387E+00+
*       9.9999965929E-01               0
GRID*               2073               01.9231297954E-05-4.946449387E+00+
*       1.9999989035E+00               0
GRID*               2074               0-1.913410820E+004.6729474693E+00+
*       6.0000003791E+00               0
GRID*               2075               0-9.754442226E-014.9574752388E+00+
*       9.0000004259E+00               0
GRID*               2076               04.1573461201E+002.8314019603E+00+
*       5.9999998070E+00               0
GRID*               2077               05.8888460219E-09-4.946449395E+00+
*       0.0000000000E+00               0
GRID*               2078               04.1573478008E+002.8313997066E+00+
*       1.9999999690E+00               0
GRID*               2079               02.7778498955E+004.2108942503E+00+
*       0.0000000000E+00               0
GRID*               2080               02.7778456915E+004.2108969985E+00+
*       9.9999970716E-01               0
GRID*               2081               0-5.888845911E-095.0535455903E+00+
*       1.0000000000E+01               0
GRID*               2082               0-9.754514149E-014.9574735631E+00+
*       1.0000000000E+01               0
GRID*               2083               04.9039246727E+00-9.219031667E-01+
*       0.0000000000E+00               0
GRID*               2084               04.9039214168E+001.0290178450E+00+
*       1.9999989195E+00               0
GRID*               2085               04.6193902609E+001.9669766987E+00+
*       1.9999992284E+00               0
GRID*               2086               03.5355423127E+003.5890710795E+00+
*       7.0000007924E+00               0
GRID*               2087               03.5355470595E+003.5890660455E+00+
*       6.0000011933E+00               0
GRID*               2088               0-3.535532896E+003.5890810554E+00+
*       0.0000000000E+00               0
GRID*               2089               0-3.535534207E+003.5890796763E+00+
*       9.9999989054E-01               0
GRID*               2090               04.9039246821E+001.0289994231E+00+
*       1.0000000000E+01               0
GRID*               2091               04.6193955518E+001.9669643852E+00+
*       1.0000000000E+01               0
GRID*               2092               0-4.157348010E+00-2.724303020E+00+
*       0.0000000000E+00               0
GRID*               2093               0-4.157347939E+00-2.724303105E+00+
*       9.9999999125E-01               0
GRID*               2094               03.5355376605E+003.5890760133E+00+
*       8.0000004002E+00               0
GRID*               2095               02.7778498404E+00-4.103797946E+00+
*       1.0000000000E+01               0
GRID*               2096               0-2.777849831E+00-4.103797953E+00+
*       1.0000000000E+01               0
GRID*               2097               0-1.913416938E+00-4.565849009E+00+
*       1.0000000000E+01               0
GRID*               2098               09.7545249358E-01-4.850377094E+00+
*       9.9999992908E-01               0
GRID*               2099               0-3.535532916E+00-3.481984863E+00+
*       1.0000000000E+01               0
GRID*               2100               02.7778259653E+00-4.103813654E+00+
*       7.0000016537E+00               0
GRID*               2101               0-4.157345566E+00-2.724306290E+00+
*       7.9999997624E+00               0
GRID*               2102               0-2.777849831E+00-4.103797953E+00+
*       0.0000000000E+00               0
GRID*               2103               09.7545141625E-01-4.850377374E+00+
*       0.0000000000E+00               0
GRID*               2104               01.9134169562E+004.6729452430E+00+
*       0.0000000000E+00               0
GRID*               2105               01.9134164843E+004.6729454031E+00+
*       9.9999997026E-01               0
GRID*               2106               09.7545140335E-014.9574735654E+00+
*       1.0000000000E+01               0
GRID*               2107               05.0000000000E+005.3548127413E-02+
*       0.0000000000E+00               0
GRID*               2108               0-3.535532916E+00-3.481984863E+00+
*       0.0000000000E+00               0
GRID*               2109               01.9134169489E+00-4.565849005E+00+
*       1.0000000000E+01               0
GRID*               2110               01.9134202113E+00-4.565847802E+00+
*       9.9999980140E-01               0
GRID*               2111               01.9134169489E+00-4.565849005E+00+
*       0.0000000000E+00               0
GRID*               2112               09.7545140335E-014.9574735654E+00+
*       0.0000000000E+00               0
GRID*               2113               07.3418382485E-125.3548120286E-02+
*       9.9999999846E+00               0
$*
$* ELEMENT CARDS
$*
$*  Mesh Collector: Laminate1-Extrusion
$*  Mesh: Laminate1-Ply1
CHEXA        321       3     353     354     355     356     705     706+
+            707     708
CHEXA        322       3     357     358     359     360     709     710+
+            711     712
CHEXA        323       3     361     362     363     364     713     714+
+            715     716
CHEXA        324       3     365     366     367     368     717     718+
+            719     720
CHEXA        325       3     369     370     371     372     721     722+
+            723     724
CHEXA        326       3     362     373     374     363     714     725+
+            726     715
CHEXA        327       3     371     375     376     377     723     727+
+            728     729
CHEXA        328       3     378     379     380     381     730     731+
+            732     733
CHEXA        329       3     382     383     384     385     734     735+
+            736     737
CHEXA        330       3     386     387     388     389     738     739+
+            740     741
CHEXA        331       3     390     391     392     393     742     743+
+            744     745
CHEXA        332       3     394     395     396     397     746     747+
+            748     749
CHEXA        333       3     398     399     400     401     750     751+
+            752     753
CHEXA        334       3     402     403     404     405     754     755+
+            756     757
CHEXA        335       3     406     407     408     409     758     759+
+            760     761
CHEXA        336       3     410     402     405     411     762     754+
+            757     763
CHEXA        337       3     412     413     414     415     764     765+
+            766     767
CHEXA        338       3     416     417     353     418     768     769+
+            705     770
CHEXA        339       3     370     419     375     371     722     771+
+            727     723
CHEXA        340       3     420     421     422     423     772     773+
+            774     775
CHEXA        341       3     424     425     426     427     776     777+
+            778     779
CHEXA        342       3     428     429     430     431     780     781+
+            782     783
CHEXA        343       3     432     433     434     435     784     785+
+            786     787
CHEXA        344       3     436     437     358     357     788     789+
+            710     709
CHEXA        345       3     438     439     440     441     790     791+
+            792     793
CHEXA        346       3     442     443     444     445     794     795+
+            796     797
CHEXA        347       3     439     446     447     440     791     798+
+            799     792
CHEXA        348       3     448     449     450     451     800     801+
+            802     803
CHEXA        349       3     452     453     454     455     804     805+
+            806     807
CHEXA        350       3     456     457     458     459     808     809+
+            810     811
CHEXA        351       3     427     426     378     460     779     778+
+            730     812
CHEXA        352       3     461     462     463     464     813     814+
+            815     816
CHEXA        353       3     465     466     467     468     817     818+
+            819     820
CHEXA        354       3     469     470     471     472     821     822+
+            823     824
CHEXA        355       3     473     474     432     475     825     826+
+            784     827
CHEXA        356       3     476     477     478     479     828     829+
+            830     831
CHEXA        357       3     480     481     482     483     832     833+
+            834     835
CHEXA        358       3     391     484     485     392     743     836+
+            837     744
CHEXA        359       3     486     441     383     382     838     793+
+            735     734
CHEXA        360       3     460     378     381     487     812     730+
+            733     839
CHEXA        361       3     488     489     490     491     840     841+
+            842     843
CHEXA        362       3     492     493     494     495     844     845+
+            846     847
CHEXA        363       3     496     497     465     498     848     849+
+            817     850
CHEXA        364       3     499     500     501     502     851     852+
+            853     854
CHEXA        365       3     429     503     504     430     781     855+
+            856     782
CHEXA        366       3     505     389     506     462     857     741+
+            858     814
CHEXA        367       3     507     508     509     510     859     860+
+            861     862
CHEXA        368       3     485     461     464     511     837     813+
+            816     863
CHEXA        369       3     512     513     514     515     864     865+
+            866     867
CHEXA        370       3     516     517     518     519     868     869+
+            870     871
CHEXA        371       3     520     521     522     523     872     873+
+            874     875
CHEXA        372       3     514     524     525     526     866     876+
+            877     878
CHEXA        373       3     527     528     529     446     879     880+
+            881     798
CHEXA        374       3     530     531     492     532     882     883+
+            844     884
CHEXA        375       3     455     454     533     534     807     806+
+            885     886
CHEXA        376       3     388     361     364     535     740     713+
+            716     887
CHEXA        377       3     536     516     519     537     888     868+
+            871     889
CHEXA        378       3     368     367     538     539     720     719+
+            890     891
CHEXA        379       3     372     371     377     540     724     723+
+            729     892
CHEXA        380       3     417     541     354     353     769     893+
+            706     705
CHEXA        381       3     358     542     543     359     710     894+
+            895     711
CHEXA        382       3     377     376     544     545     729     728+
+            896     897
CHEXA        383       3     381     380     546     547     733     732+
+            898     899
CHEXA        384       3     548     549     550     551     900     901+
+            902     903
CHEXA        385       3     552     553     391     390     904     905+
+            743     742
CHEXA        386       3     397     396     369     554     749     748+
+            721     906
CHEXA        387       3     401     400     555     556     753     752+
+            907     908
CHEXA        388       3     405     404     557     558     757     756+
+            909     910
CHEXA        389       3     409     408     559     560     761     760+
+            911     912
CHEXA        390       3     546     480     483     561     898     832+
+            835     913
CHEXA        391       3     487     381     547     474     839     733+
+            899     826
CHEXA        392       3     415     414     562     563     767     766+
+            914     915
CHEXA        393       3     564     565     417     416     916     917+
+            769     768
CHEXA        394       3     423     422     398     566     775     774+
+            750     918
CHEXA        395       3     567     385     568     569     919     737+
+            920     921
CHEXA        396       3     431     430     570     571     783     782+
+            922     923
CHEXA        397       3     435     434     572     573     787     786+
+            924     925
CHEXA        398       3     441     440     574     383     793     792+
+            926     735
CHEXA        399       3     445     444     575     576     797     796+
+            927     928
CHEXA        400       3     577     578     579     528     929     930+
+            931     880
CHEXA        401       3     569     568     580     581     921     920+
+            932     933
CHEXA        402       3     451     450     582     583     803     802+
+            934     935
CHEXA        403       3     574     584     425     424     926     936+
+            777     776
CHEXA        404       3     459     458     428     585     811     810+
+            780     937
CHEXA        405       3     586     473     475     587     938     825+
+            827     939
CHEXA        406       3     462     506     588     463     814     858+
+            940     815
CHEXA        407       3     468     467     505     589     820     819+
+            857     941
CHEXA        408       3     590     591     439     438     942     943+
+            791     790
CHEXA        409       3     475     432     435     592     827     784+
+            787     944
CHEXA        410       3     479     478     578     577     831     830+
+            930     929
CHEXA        411       3     483     482     593     453     835     834+
+            945     805
CHEXA        412       3     594     595     590     470     946     947+
+            942     822
CHEXA        413       3     491     490     596     597     843     842+
+            948     949
CHEXA        414       3     495     494     598     599     847     846+
+            950     951
CHEXA        415       3     543     532     403     402     895     884+
+            755     754
CHEXA        416       3     498     465     468     600     850     817+
+            820     952
CHEXA        417       3     601     602     603     604     953     954+
+            955     956
CHEXA        418       3     430     504     605     570     782     856+
+            957     922
CHEXA        419       3     510     509     606     387     862     861+
+            958     739
CHEXA        420       3     515     514     526     607     867     866+
+            878     959
CHEXA        421       3     354     608     609     355     706     960+
+            961     707
CHEXA        422       3     526     525     610     611     878     877+
+            962     963
CHEXA        423       3     446     529     612     447     798     881+
+            964     799
CHEXA        424       3     532     492     495     403     884     844+
+            847     755
CHEXA        425       3     613     537     437     436     965     889+
+            789     788
CHEXA        426       3     389     388     535     506     741     740+
+            887     858
CHEXA        427       3     539     538     512     413     891     890+
+            864     765
CHEXA        428       3     540     377     545     614     892     729+
+            897     966
CHEXA        429       3     553     600     484     391     905     952+
+            836     743
CHEXA        430       3     545     544     615     616     897     896+
+            967     968
CHEXA        431       3     547     546     561     433     899     898+
+            913     785
CHEXA        432       3     440     447     584     574     792     799+
+            936     926
CHEXA        433       3     551     550     617     443     903     902+
+            969     795
CHEXA        434       3     618     619     553     552     970     971+
+            905     904
CHEXA        435       3     554     369     372     449     906     721+
+            724     801
CHEXA        436       3     556     555     620     621     908     907+
+            972     973
CHEXA        437       3     558     557     622     623     910     909+
+            974     975
CHEXA        438       3     560     559     624     466     912     911+
+            976     818
CHEXA        439       3     542     530     532     543     894     882+
+            884     895
CHEXA        440       3     563     562     625     477     915     914+
+            977     829
CHEXA        441       3     384     424     427     626     736     776+
+            779     978
CHEXA        442       3     566     398     401     481     918     750+
+            753     833
CHEXA        443       3     571     570     627     628     923     922+
+            979     980
CHEXA        444       3     573     572     629     608     925     924+
+            981     960
CHEXA        445       3     383     574     424     384     735     926+
+            776     736
CHEXA        446       3     576     575     630     493     928     927+
+            982     845
CHEXA        447       3     583     582     631     500     935     934+
+            983     852
CHEXA        448       3     602     623     632     603     954     975+
+            984     955
CHEXA        449       3     585     428     431     508     937     780+
+            783     860
CHEXA        450       3     506     535     548     588     858     887+
+            900     940
CHEXA        451       3     463     588     633     634     815     940+
+            985     986
CHEXA        452       3     592     435     573     541     944     787+
+            925     893
CHEXA        453       3     604     603     594     635     956     955+
+            946     987
CHEXA        454       3     555     636     637     620     907     988+
+            989     972
CHEXA        455       3     638     486     382     639     990     838+
+            734     991
CHEXA        456       3     453     593     640     454     805     945+
+            992     806
CHEXA        457       3     641     511     516     536     993     863+
+            868     888
CHEXA        458       3     597     596     642     643     949     948+
+            994     995
CHEXA        459       3     599     598     644     645     951     950+
+            996     997
CHEXA        460       3     646     647     473     586     998     999+
+            825     938
CHEXA        461       3     379     648     649     380     731    1000+
+           1001     732
CHEXA        462       3     570     605     650     627     922     957+
+           1002     979
CHEXA        463       3     561     483     453     452     913     835+
+            805     804
CHEXA        464       3     387     606     361     388     739     958+
+            713     740
CHEXA        465       3     607     526     611     651     959     878+
+            963    1003
CHEXA        466       3     611     610     652     653     963     962+
+           1004    1005
CHEXA        467       3     447     612     654     584     799     964+
+           1006     936
CHEXA        468       3     403     495     599     404     755     847+
+            951     756
CHEXA        469       3     407     655     656     408     759    1007+
+           1008     760
CHEXA        470       3     356     355     657     658     708     707+
+           1009    1010
CHEXA        471       3     413     512     515     414     765     864+
+            867     766
CHEXA        472       3     614     545     616     659     966     897+
+            968    1011
CHEXA        473       3     616     615     660     661     968     967+
+           1012    1013
CHEXA        474       3     433     561     452     434     785     913+
+            804     786
CHEXA        475       3     385     384     626     568     737     736+
+            978     920
CHEXA        476       3     443     617     365     444     795     969+
+            717     796
CHEXA        477       3     662     663     619     618    1014    1015+
+            971     970
CHEXA        478       3     449     372     540     450     801     724+
+            892     802
CHEXA        479       3     502     501     648     379     854     853+
+           1000     731
CHEXA        480       3     621     620     664     665     973     972+
+           1016    1017
CHEXA        481       3     557     645     666     622     909     997+
+           1018     974
CHEXA        482       3     623     622     520     632     975     974+
+            872     984
CHEXA        483       3     466     624     386     467     818     976+
+            738     819
CHEXA        484       3     411     405     558     667     763     757+
+            910    1019
CHEXA        485       3     477     625     394     478     829     977+
+            746     830
CHEXA        486       3     481     401     556     482     833     753+
+            908     834
CHEXA        487       3     628     627     373     362     980     979+
+            725     714
CHEXA        488       3     608     629     406     609     960     981+
+            758     961
CHEXA        489       3     359     543     402     410     711     895+
+            754     762
CHEXA        490       3     493     630     412     494     845     982+
+            764     846
CHEXA        491       3     500     631     420     501     852     983+
+            772     853
CHEXA        492       3     508     431     571     509     860     783+
+            923     861
CHEXA        493       3     535     364     549     548     887     716+
+            901     900
CHEXA        494       3     634     633     442     668     986     985+
+            794    1020
CHEXA        495       3     541     573     608     354     893     925+
+            960     706
CHEXA        496       3     528     579     448     529     880     931+
+            800     881
CHEXA        497       3     620     637     669     664     972     989+
+           1021    1016
CHEXA        498       3     454     640     456     533     806     992+
+            808     885
CHEXA        499       3     670     597     643     366    1022     949+
+            995     718
CHEXA        500       3     643     642     671     672     995     994+
+           1023    1024
CHEXA        501       3     645     644     476     666     997     996+
+            828    1018
CHEXA        502       3     464     463     634     517     816     815+
+            986     869
CHEXA        503       3     673     411     667     674    1025     763+
+           1019    1026
CHEXA        504       3     627     650     675     373     979    1002+
+           1027     725
CHEXA        505       3     549     676     677     550     901    1028+
+           1029     902
CHEXA        506       3     678     679     531     530    1030    1031+
+            883     882
CHEXA        507       3     651     611     653     395    1003     963+
+           1005     747
CHEXA        508       3     653     652     680     681    1005    1004+
+           1032    1033
CHEXA        509       3     584     654     499     425     936    1006+
+            851     777
CHEXA        510       3     404     599     645     557     756     951+
+            997     909
CHEXA        511       3     682     641     536     683    1034     993+
+            888    1035
CHEXA        512       3     589     505     462     461     941     857+
+            814     813
CHEXA        513       3     414     515     607     562     766     867+
+            959     914
CHEXA        514       3     659     616     661     421    1011     968+
+           1013     773
CHEXA        515       3     661     660     684     685    1013    1012+
+           1036    1037
CHEXA        516       3     434     452     455     572     786     804+
+            807     924
CHEXA        517       3     686     678     530     542    1038    1030+
+            882     894
CHEXA        518       3     591     527     446     439     943     879+
+            798     791
CHEXA        519       3     444     365     368     575     796     717+
+            720     927
CHEXA        520       3     687     658     663     662    1039    1010+
+           1015    1014
CHEXA        521       3     450     540     614     582     802     892+
+            966     934
CHEXA        522       3     688     586     587     689    1040     938+
+            939    1041
CHEXA        523       3     665     664     690     457    1017    1016+
+           1042     809
CHEXA        524       3     565     592     541     417     917     944+
+            893     769
CHEXA        525       3     474     547     433     432     826     899+
+            785     784
CHEXA        526       3     632     520     523     595     984     872+
+            875     947
CHEXA        527       3     467     386     389     505     819     738+
+            741     857
CHEXA        528       3     581     580     646     691     933     932+
+            998    1043
CHEXA        529       3     478     394     397     578     830     746+
+            749     930
CHEXA        530       3     677     491     597     670    1029     843+
+            949    1022
CHEXA        531       3     482     556     621     593     834     908+
+            973     945
CHEXA        532       3     691     646     586     688    1043     998+
+            938    1040
CHEXA        533       3     393     392     641     682     745     744+
+            993    1034
CHEXA        534       3     609     406     409     692     961     758+
+            761    1044
CHEXA        535       3     626     427     460     693     978     779+
+            812    1045
CHEXA        536       3     494     412     415     598     846     764+
+            767     950
CHEXA        537       3     501     420     423     648     853     772+
+            775    1000
CHEXA        538       3     400     694     636     555     752    1046+
+            988     907
CHEXA        539       3     509     571     628     606     861     923+
+            980     958
CHEXA        540       3     587     475     592     565     939     827+
+            944     917
CHEXA        541       3     364     363     676     549     716     715+
+           1028     901
CHEXA        542       3     537     519     686     437     889     871+
+           1038     789
CHEXA        543       3     580     693     647     646     932    1045+
+            999     998
CHEXA        544       3     472     471     486     638     824     823+
+            838     990
CHEXA        545       3     664     669     695     690    1016    1021+
+           1047    1042
CHEXA        546       3     533     456     459     655     885     808+
+            811    1007
CHEXA        547       3     366     643     672     367     718     995+
+           1024     719
CHEXA        548       3     470     590     438     471     822     942+
+            790     823
CHEXA        549       3     672     671     696     697    1024    1023+
+           1048    1049
CHEXA        550       3     666     476     479     521    1018     828+
+            831     873
CHEXA        551       3     517     634     668     518     869     986+
+           1020     870
CHEXA        552       3     698     410     411     673    1050     762+
+            763    1025
CHEXA        553       3     373     675     699     374     725    1027+
+           1051     726
CHEXA        554       3     550     677     670     617     902    1029+
+           1022     969
CHEXA        555       3     395     653     681     396     747    1005+
+           1033     748
CHEXA        556       3     437     686     542     358     789    1038+
+            894     710
CHEXA        557       3     681     680     419     370    1033    1032+
+            771     722
CHEXA        558       3     425     499     502     426     777     851+
+            854     778
CHEXA        559       3     559     507     510     624     911     859+
+            862     976
CHEXA        560       3     484     589     461     485     836     941+
+            813     837
CHEXA        561       3     562     607     651     625     914     959+
+           1003     977
CHEXA        562       3     663     496     498     619    1015     848+
+            850     971
CHEXA        563       3     421     661     685     422     773    1013+
+           1037     774
CHEXA        564       3     685     684     700     399    1037    1036+
+           1052     751
CHEXA        565       3     572     455     534     629     924     807+
+            886     981
CHEXA        566       3     380     649     480     546     732    1001+
+            832     898
CHEXA        567       3     575     368     539     630     927     720+
+            891     982
CHEXA        568       3     701     356     658     687    1053     708+
+           1010    1039
CHEXA        569       3     582     614     659     631     934     966+
+           1011     983
CHEXA        570       3     600     468     589     484     952     820+
+            941     836
CHEXA        571       3     457     690     702     458     809    1042+
+           1054     810
CHEXA        572       3     471     438     441     486     823     790+
+            793     838
CHEXA        573       3     595     523     591     590     947     875+
+            943     942
CHEXA        574       3     588     548     551     633     940     900+
+            903     985
CHEXA        575       3     418     353     356     701     770     705+
+            708    1053
CHEXA        576       3     603     632     595     594     955     984+
+            947     946
CHEXA        577       3     578     397     554     579     930     749+
+            906     931
CHEXA        578       3     593     621     665     640     945     973+
+           1017     992
CHEXA        579       3     392     485     511     641     744     837+
+            863     993
CHEXA        580       3     692     409     560     497    1044     761+
+            912     849
CHEXA        581       3     693     460     487     647    1045     812+
+            839     999
CHEXA        582       3     598     415     563     644     950     767+
+            915     996
CHEXA        583       3     648     423     566     649    1000     775+
+            918    1001
CHEXA        584       3     606     628     362     361     958     980+
+            714     713
CHEXA        585       3     363     374     488     676     715     726+
+            840    1028
CHEXA        586       3     679     445     576     531    1031     797+
+            928     883
CHEXA        587       3     622     666     521     520     974    1018+
+            873     872
CHEXA        588       3     355     609     692     657     707     961+
+           1044    1009
CHEXA        589       3     612     451     583     654     964     803+
+            935    1006
CHEXA        590       3     690     695     703     702    1042    1047+
+           1055    1054
CHEXA        591       3     655     459     585     656    1007     811+
+            937    1008
CHEXA        592       3     367     672     697     538     719    1024+
+           1049     890
CHEXA        593       3     689     587     565     564    1041     939+
+            917     916
CHEXA        594       3     408     656     507     559     760    1008+
+            859     911
CHEXA        595       3     521     479     577     522     873     831+
+            929     874
CHEXA        596       3     518     668     679     678     870    1020+
+           1031    1030
CHEXA        597       3     360     359     410     698     712     711+
+            762    1050
CHEXA        598       3     511     464     517     516     863     816+
+            869     868
CHEXA        599       3     674     667     602     601    1026    1019+
+            954     953
CHEXA        600       3     617     670     366     365     969    1022+
+            718     717
CHEXA        601       3     396     681     370     369     748    1033+
+            722     721
CHEXA        602       3     519     518     678     686     871     870+
+           1030    1038
CHEXA        603       3     523     522     527     591     875     874+
+            879     943
CHEXA        604       3     697     696     704     513    1049    1048+
+           1056     865
CHEXA        605       3     426     502     379     378     778     854+
+            731     730
CHEXA        606       3     531     576     493     492     883     928+
+            845     844
CHEXA        607       3     624     510     387     386     976     862+
+            739     738
CHEXA        608       3     658     657     496     663    1010    1009+
+            848    1015
CHEXA        609       3     625     651     395     394     977    1003+
+            747     746
CHEXA        610       3     422     685     399     398     774    1037+
+            751     750
CHEXA        611       3     399     700     694     400     751    1052+
+           1046     752
CHEXA        612       3     629     534     407     406     981     886+
+            759     758
CHEXA        613       3     630     539     413     412     982     891+
+            765     764
CHEXA        614       3     568     626     693     580     920     978+
+           1045     932
CHEXA        615       3     631     659     421     420     983    1011+
+            773     772
CHEXA        616       3     458     702     429     428     810    1054+
+            781     780
CHEXA        617       3     522     577     528     527     874     929+
+            880     879
CHEXA        618       3     619     498     600     553     971     850+
+            952     905
CHEXA        619       3     633     551     443     442     985     903+
+            795     794
CHEXA        620       3     579     554     449     448     931     906+
+            801     800
CHEXA        621       3     667     558     623     602    1019     910+
+            975     954
CHEXA        622       3     640     665     457     456     992    1017+
+            809     808
CHEXA        623       3     529     448     451     612     881     800+
+            803     964
CHEXA        624       3     497     560     466     465     849     912+
+            818     817
CHEXA        625       3     639     382     385     567     991     734+
+            737     919
CHEXA        626       3     647     487     474     473     999     839+
+            826     825
CHEXA        627       3     644     563     477     476     996     915+
+            829     828
CHEXA        628       3     649     566     481     480    1001     918+
+            833     832
CHEXA        629       3     676     488     491     677    1028     840+
+            843    1029
CHEXA        630       3     534     533     655     407     886     885+
+           1007     759
CHEXA        631       3     374     699     489     488     726    1051+
+            841     840
CHEXA        632       3     683     536     537     613    1035     888+
+            889     965
CHEXA        633       3     657     692     497     496    1009    1044+
+            849     848
CHEXA        634       3     635     594     470     469     987     946+
+            822     821
CHEXA        635       3     702     703     503     429    1054    1055+
+            855     781
CHEXA        636       3     656     585     508     507    1008     937+
+            860     859
CHEXA        637       3     654     583     500     499    1006     935+
+            852     851
CHEXA        638       3     538     697     513     512     890    1049+
+            865     864
CHEXA        639       3     513     704     524     514     865    1056+
+            876     866
CHEXA        640       3     668     442     445     679    1020     794+
+            797    1031
$*  Mesh Collector: Laminate1-Extrusion
$*  Mesh: Laminate1-Ply2
CHEXA        641       4     705     706     707     708    1057    1058+
+           1059    1060
CHEXA        642       4     709     710     711     712    1061    1062+
+           1063    1064
CHEXA        643       4     713     714     715     716    1065    1066+
+           1067    1068
CHEXA        644       4     717     718     719     720    1069    1070+
+           1071    1072
CHEXA        645       4     721     722     723     724    1073    1074+
+           1075    1076
CHEXA        646       4     714     725     726     715    1066    1077+
+           1078    1067
CHEXA        647       4     723     727     728     729    1075    1079+
+           1080    1081
CHEXA        648       4     730     731     732     733    1082    1083+
+           1084    1085
CHEXA        649       4     734     735     736     737    1086    1087+
+           1088    1089
CHEXA        650       4     738     739     740     741    1090    1091+
+           1092    1093
CHEXA        651       4     742     743     744     745    1094    1095+
+           1096    1097
CHEXA        652       4     746     747     748     749    1098    1099+
+           1100    1101
CHEXA        653       4     750     751     752     753    1102    1103+
+           1104    1105
CHEXA        654       4     754     755     756     757    1106    1107+
+           1108    1109
CHEXA        655       4     758     759     760     761    1110    1111+
+           1112    1113
CHEXA        656       4     762     754     757     763    1114    1106+
+           1109    1115
CHEXA        657       4     764     765     766     767    1116    1117+
+           1118    1119
CHEXA        658       4     768     769     705     770    1120    1121+
+           1057    1122
CHEXA        659       4     722     771     727     723    1074    1123+
+           1079    1075
CHEXA        660       4     772     773     774     775    1124    1125+
+           1126    1127
CHEXA        661       4     776     777     778     779    1128    1129+
+           1130    1131
CHEXA        662       4     780     781     782     783    1132    1133+
+           1134    1135
CHEXA        663       4     784     785     786     787    1136    1137+
+           1138    1139
CHEXA        664       4     788     789     710     709    1140    1141+
+           1062    1061
CHEXA        665       4     790     791     792     793    1142    1143+
+           1144    1145
CHEXA        666       4     794     795     796     797    1146    1147+
+           1148    1149
CHEXA        667       4     791     798     799     792    1143    1150+
+           1151    1144
CHEXA        668       4     800     801     802     803    1152    1153+
+           1154    1155
CHEXA        669       4     804     805     806     807    1156    1157+
+           1158    1159
CHEXA        670       4     808     809     810     811    1160    1161+
+           1162    1163
CHEXA        671       4     779     778     730     812    1131    1130+
+           1082    1164
CHEXA        672       4     813     814     815     816    1165    1166+
+           1167    1168
CHEXA        673       4     817     818     819     820    1169    1170+
+           1171    1172
CHEXA        674       4     821     822     823     824    1173    1174+
+           1175    1176
CHEXA        675       4     825     826     784     827    1177    1178+
+           1136    1179
CHEXA        676       4     828     829     830     831    1180    1181+
+           1182    1183
CHEXA        677       4     832     833     834     835    1184    1185+
+           1186    1187
CHEXA        678       4     743     836     837     744    1095    1188+
+           1189    1096
CHEXA        679       4     838     793     735     734    1190    1145+
+           1087    1086
CHEXA        680       4     812     730     733     839    1164    1082+
+           1085    1191
CHEXA        681       4     840     841     842     843    1192    1193+
+           1194    1195
CHEXA        682       4     844     845     846     847    1196    1197+
+           1198    1199
CHEXA        683       4     848     849     817     850    1200    1201+
+           1169    1202
CHEXA        684       4     851     852     853     854    1203    1204+
+           1205    1206
CHEXA        685       4     781     855     856     782    1133    1207+
+           1208    1134
CHEXA        686       4     857     741     858     814    1209    1093+
+           1210    1166
CHEXA        687       4     859     860     861     862    1211    1212+
+           1213    1214
CHEXA        688       4     837     813     816     863    1189    1165+
+           1168    1215
CHEXA        689       4     864     865     866     867    1216    1217+
+           1218    1219
CHEXA        690       4     868     869     870     871    1220    1221+
+           1222    1223
CHEXA        691       4     872     873     874     875    1224    1225+
+           1226    1227
CHEXA        692       4     866     876     877     878    1218    1228+
+           1229    1230
CHEXA        693       4     879     880     881     798    1231    1232+
+           1233    1150
CHEXA        694       4     882     883     844     884    1234    1235+
+           1196    1236
CHEXA        695       4     807     806     885     886    1159    1158+
+           1237    1238
CHEXA        696       4     740     713     716     887    1092    1065+
+           1068    1239
CHEXA        697       4     888     868     871     889    1240    1220+
+           1223    1241
CHEXA        698       4     720     719     890     891    1072    1071+
+           1242    1243
CHEXA        699       4     724     723     729     892    1076    1075+
+           1081    1244
CHEXA        700       4     769     893     706     705    1121    1245+
+           1058    1057
CHEXA        701       4     710     894     895     711    1062    1246+
+           1247    1063
CHEXA        702       4     729     728     896     897    1081    1080+
+           1248    1249
CHEXA        703       4     733     732     898     899    1085    1084+
+           1250    1251
CHEXA        704       4     900     901     902     903    1252    1253+
+           1254    1255
CHEXA        705       4     904     905     743     742    1256    1257+
+           1095    1094
CHEXA        706       4     749     748     721     906    1101    1100+
+           1073    1258
CHEXA        707       4     753     752     907     908    1105    1104+
+           1259    1260
CHEXA        708       4     757     756     909     910    1109    1108+
+           1261    1262
CHEXA        709       4     761     760     911     912    1113    1112+
+           1263    1264
CHEXA        710       4     898     832     835     913    1250    1184+
+           1187    1265
CHEXA        711       4     839     733     899     826    1191    1085+
+           1251    1178
CHEXA        712       4     767     766     914     915    1119    1118+
+           1266    1267
CHEXA        713       4     916     917     769     768    1268    1269+
+           1121    1120
CHEXA        714       4     775     774     750     918    1127    1126+
+           1102    1270
CHEXA        715       4     919     737     920     921    1271    1089+
+           1272    1273
CHEXA        716       4     783     782     922     923    1135    1134+
+           1274    1275
CHEXA        717       4     787     786     924     925    1139    1138+
+           1276    1277
CHEXA        718       4     793     792     926     735    1145    1144+
+           1278    1087
CHEXA        719       4     797     796     927     928    1149    1148+
+           1279    1280
CHEXA        720       4     929     930     931     880    1281    1282+
+           1283    1232
CHEXA        721       4     921     920     932     933    1273    1272+
+           1284    1285
CHEXA        722       4     803     802     934     935    1155    1154+
+           1286    1287
CHEXA        723       4     926     936     777     776    1278    1288+
+           1129    1128
CHEXA        724       4     811     810     780     937    1163    1162+
+           1132    1289
CHEXA        725       4     938     825     827     939    1290    1177+
+           1179    1291
CHEXA        726       4     814     858     940     815    1166    1210+
+           1292    1167
CHEXA        727       4     820     819     857     941    1172    1171+
+           1209    1293
CHEXA        728       4     942     943     791     790    1294    1295+
+           1143    1142
CHEXA        729       4     827     784     787     944    1179    1136+
+           1139    1296
CHEXA        730       4     831     830     930     929    1183    1182+
+           1282    1281
CHEXA        731       4     835     834     945     805    1187    1186+
+           1297    1157
CHEXA        732       4     946     947     942     822    1298    1299+
+           1294    1174
CHEXA        733       4     843     842     948     949    1195    1194+
+           1300    1301
CHEXA        734       4     847     846     950     951    1199    1198+
+           1302    1303
CHEXA        735       4     895     884     755     754    1247    1236+
+           1107    1106
CHEXA        736       4     850     817     820     952    1202    1169+
+           1172    1304
CHEXA        737       4     953     954     955     956    1305    1306+
+           1307    1308
CHEXA        738       4     782     856     957     922    1134    1208+
+           1309    1274
CHEXA        739       4     862     861     958     739    1214    1213+
+           1310    1091
CHEXA        740       4     867     866     878     959    1219    1218+
+           1230    1311
CHEXA        741       4     706     960     961     707    1058    1312+
+           1313    1059
CHEXA        742       4     878     877     962     963    1230    1229+
+           1314    1315
CHEXA        743       4     798     881     964     799    1150    1233+
+           1316    1151
CHEXA        744       4     884     844     847     755    1236    1196+
+           1199    1107
CHEXA        745       4     965     889     789     788    1317    1241+
+           1141    1140
CHEXA        746       4     741     740     887     858    1093    1092+
+           1239    1210
CHEXA        747       4     891     890     864     765    1243    1242+
+           1216    1117
CHEXA        748       4     892     729     897     966    1244    1081+
+           1249    1318
CHEXA        749       4     905     952     836     743    1257    1304+
+           1188    1095
CHEXA        750       4     897     896     967     968    1249    1248+
+           1319    1320
CHEXA        751       4     899     898     913     785    1251    1250+
+           1265    1137
CHEXA        752       4     792     799     936     926    1144    1151+
+           1288    1278
CHEXA        753       4     903     902     969     795    1255    1254+
+           1321    1147
CHEXA        754       4     970     971     905     904    1322    1323+
+           1257    1256
CHEXA        755       4     906     721     724     801    1258    1073+
+           1076    1153
CHEXA        756       4     908     907     972     973    1260    1259+
+           1324    1325
CHEXA        757       4     910     909     974     975    1262    1261+
+           1326    1327
CHEXA        758       4     912     911     976     818    1264    1263+
+           1328    1170
CHEXA        759       4     894     882     884     895    1246    1234+
+           1236    1247
CHEXA        760       4     915     914     977     829    1267    1266+
+           1329    1181
CHEXA        761       4     736     776     779     978    1088    1128+
+           1131    1330
CHEXA        762       4     918     750     753     833    1270    1102+
+           1105    1185
CHEXA        763       4     923     922     979     980    1275    1274+
+           1331    1332
CHEXA        764       4     925     924     981     960    1277    1276+
+           1333    1312
CHEXA        765       4     735     926     776     736    1087    1278+
+           1128    1088
CHEXA        766       4     928     927     982     845    1280    1279+
+           1334    1197
CHEXA        767       4     935     934     983     852    1287    1286+
+           1335    1204
CHEXA        768       4     954     975     984     955    1306    1327+
+           1336    1307
CHEXA        769       4     937     780     783     860    1289    1132+
+           1135    1212
CHEXA        770       4     858     887     900     940    1210    1239+
+           1252    1292
CHEXA        771       4     815     940     985     986    1167    1292+
+           1337    1338
CHEXA        772       4     944     787     925     893    1296    1139+
+           1277    1245
CHEXA        773       4     956     955     946     987    1308    1307+
+           1298    1339
CHEXA        774       4     907     988     989     972    1259    1340+
+           1341    1324
CHEXA        775       4     990     838     734     991    1342    1190+
+           1086    1343
CHEXA        776       4     805     945     992     806    1157    1297+
+           1344    1158
CHEXA        777       4     993     863     868     888    1345    1215+
+           1220    1240
CHEXA        778       4     949     948     994     995    1301    1300+
+           1346    1347
CHEXA        779       4     951     950     996     997    1303    1302+
+           1348    1349
CHEXA        780       4     998     999     825     938    1350    1351+
+           1177    1290
CHEXA        781       4     731    1000    1001     732    1083    1352+
+           1353    1084
CHEXA        782       4     922     957    1002     979    1274    1309+
+           1354    1331
CHEXA        783       4     913     835     805     804    1265    1187+
+           1157    1156
CHEXA        784       4     739     958     713     740    1091    1310+
+           1065    1092
CHEXA        785       4     959     878     963    1003    1311    1230+
+           1315    1355
CHEXA        786       4     963     962    1004    1005    1315    1314+
+           1356    1357
CHEXA        787       4     799     964    1006     936    1151    1316+
+           1358    1288
CHEXA        788       4     755     847     951     756    1107    1199+
+           1303    1108
CHEXA        789       4     759    1007    1008     760    1111    1359+
+           1360    1112
CHEXA        790       4     708     707    1009    1010    1060    1059+
+           1361    1362
CHEXA        791       4     765     864     867     766    1117    1216+
+           1219    1118
CHEXA        792       4     966     897     968    1011    1318    1249+
+           1320    1363
CHEXA        793       4     968     967    1012    1013    1320    1319+
+           1364    1365
CHEXA        794       4     785     913     804     786    1137    1265+
+           1156    1138
CHEXA        795       4     737     736     978     920    1089    1088+
+           1330    1272
CHEXA        796       4     795     969     717     796    1147    1321+
+           1069    1148
CHEXA        797       4    1014    1015     971     970    1366    1367+
+           1323    1322
CHEXA        798       4     801     724     892     802    1153    1076+
+           1244    1154
CHEXA        799       4     854     853    1000     731    1206    1205+
+           1352    1083
CHEXA        800       4     973     972    1016    1017    1325    1324+
+           1368    1369
CHEXA        801       4     909     997    1018     974    1261    1349+
+           1370    1326
CHEXA        802       4     975     974     872     984    1327    1326+
+           1224    1336
CHEXA        803       4     818     976     738     819    1170    1328+
+           1090    1171
CHEXA        804       4     763     757     910    1019    1115    1109+
+           1262    1371
CHEXA        805       4     829     977     746     830    1181    1329+
+           1098    1182
CHEXA        806       4     833     753     908     834    1185    1105+
+           1260    1186
CHEXA        807       4     980     979     725     714    1332    1331+
+           1077    1066
CHEXA        808       4     960     981     758     961    1312    1333+
+           1110    1313
CHEXA        809       4     711     895     754     762    1063    1247+
+           1106    1114
CHEXA        810       4     845     982     764     846    1197    1334+
+           1116    1198
CHEXA        811       4     852     983     772     853    1204    1335+
+           1124    1205
CHEXA        812       4     860     783     923     861    1212    1135+
+           1275    1213
CHEXA        813       4     887     716     901     900    1239    1068+
+           1253    1252
CHEXA        814       4     986     985     794    1020    1338    1337+
+           1146    1372
CHEXA        815       4     893     925     960     706    1245    1277+
+           1312    1058
CHEXA        816       4     880     931     800     881    1232    1283+
+           1152    1233
CHEXA        817       4     972     989    1021    1016    1324    1341+
+           1373    1368
CHEXA        818       4     806     992     808     885    1158    1344+
+           1160    1237
CHEXA        819       4    1022     949     995     718    1374    1301+
+           1347    1070
CHEXA        820       4     995     994    1023    1024    1347    1346+
+           1375    1376
CHEXA        821       4     997     996     828    1018    1349    1348+
+           1180    1370
CHEXA        822       4     816     815     986     869    1168    1167+
+           1338    1221
CHEXA        823       4    1025     763    1019    1026    1377    1115+
+           1371    1378
CHEXA        824       4     979    1002    1027     725    1331    1354+
+           1379    1077
CHEXA        825       4     901    1028    1029     902    1253    1380+
+           1381    1254
CHEXA        826       4    1030    1031     883     882    1382    1383+
+           1235    1234
CHEXA        827       4    1003     963    1005     747    1355    1315+
+           1357    1099
CHEXA        828       4    1005    1004    1032    1033    1357    1356+
+           1384    1385
CHEXA        829       4     936    1006     851     777    1288    1358+
+           1203    1129
CHEXA        830       4     756     951     997     909    1108    1303+
+           1349    1261
CHEXA        831       4    1034     993     888    1035    1386    1345+
+           1240    1387
CHEXA        832       4     941     857     814     813    1293    1209+
+           1166    1165
CHEXA        833       4     766     867     959     914    1118    1219+
+           1311    1266
CHEXA        834       4    1011     968    1013     773    1363    1320+
+           1365    1125
CHEXA        835       4    1013    1012    1036    1037    1365    1364+
+           1388    1389
CHEXA        836       4     786     804     807     924    1138    1156+
+           1159    1276
CHEXA        837       4    1038    1030     882     894    1390    1382+
+           1234    1246
CHEXA        838       4     943     879     798     791    1295    1231+
+           1150    1143
CHEXA        839       4     796     717     720     927    1148    1069+
+           1072    1279
CHEXA        840       4    1039    1010    1015    1014    1391    1362+
+           1367    1366
CHEXA        841       4     802     892     966     934    1154    1244+
+           1318    1286
CHEXA        842       4    1040     938     939    1041    1392    1290+
+           1291    1393
CHEXA        843       4    1017    1016    1042     809    1369    1368+
+           1394    1161
CHEXA        844       4     917     944     893     769    1269    1296+
+           1245    1121
CHEXA        845       4     826     899     785     784    1178    1251+
+           1137    1136
CHEXA        846       4     984     872     875     947    1336    1224+
+           1227    1299
CHEXA        847       4     819     738     741     857    1171    1090+
+           1093    1209
CHEXA        848       4     933     932     998    1043    1285    1284+
+           1350    1395
CHEXA        849       4     830     746     749     930    1182    1098+
+           1101    1282
CHEXA        850       4    1029     843     949    1022    1381    1195+
+           1301    1374
CHEXA        851       4     834     908     973     945    1186    1260+
+           1325    1297
CHEXA        852       4    1043     998     938    1040    1395    1350+
+           1290    1392
CHEXA        853       4     745     744     993    1034    1097    1096+
+           1345    1386
CHEXA        854       4     961     758     761    1044    1313    1110+
+           1113    1396
CHEXA        855       4     978     779     812    1045    1330    1131+
+           1164    1397
CHEXA        856       4     846     764     767     950    1198    1116+
+           1119    1302
CHEXA        857       4     853     772     775    1000    1205    1124+
+           1127    1352
CHEXA        858       4     752    1046     988     907    1104    1398+
+           1340    1259
CHEXA        859       4     861     923     980     958    1213    1275+
+           1332    1310
CHEXA        860       4     939     827     944     917    1291    1179+
+           1296    1269
CHEXA        861       4     716     715    1028     901    1068    1067+
+           1380    1253
CHEXA        862       4     889     871    1038     789    1241    1223+
+           1390    1141
CHEXA        863       4     932    1045     999     998    1284    1397+
+           1351    1350
CHEXA        864       4     824     823     838     990    1176    1175+
+           1190    1342
CHEXA        865       4    1016    1021    1047    1042    1368    1373+
+           1399    1394
CHEXA        866       4     885     808     811    1007    1237    1160+
+           1163    1359
CHEXA        867       4     718     995    1024     719    1070    1347+
+           1376    1071
CHEXA        868       4     822     942     790     823    1174    1294+
+           1142    1175
CHEXA        869       4    1024    1023    1048    1049    1376    1375+
+           1400    1401
CHEXA        870       4    1018     828     831     873    1370    1180+
+           1183    1225
CHEXA        871       4     869     986    1020     870    1221    1338+
+           1372    1222
CHEXA        872       4    1050     762     763    1025    1402    1114+
+           1115    1377
CHEXA        873       4     725    1027    1051     726    1077    1379+
+           1403    1078
CHEXA        874       4     902    1029    1022     969    1254    1381+
+           1374    1321
CHEXA        875       4     747    1005    1033     748    1099    1357+
+           1385    1100
CHEXA        876       4     789    1038     894     710    1141    1390+
+           1246    1062
CHEXA        877       4    1033    1032     771     722    1385    1384+
+           1123    1074
CHEXA        878       4     777     851     854     778    1129    1203+
+           1206    1130
CHEXA        879       4     911     859     862     976    1263    1211+
+           1214    1328
CHEXA        880       4     836     941     813     837    1188    1293+
+           1165    1189
CHEXA        881       4     914     959    1003     977    1266    1311+
+           1355    1329
CHEXA        882       4    1015     848     850     971    1367    1200+
+           1202    1323
CHEXA        883       4     773    1013    1037     774    1125    1365+
+           1389    1126
CHEXA        884       4    1037    1036    1052     751    1389    1388+
+           1404    1103
CHEXA        885       4     924     807     886     981    1276    1159+
+           1238    1333
CHEXA        886       4     732    1001     832     898    1084    1353+
+           1184    1250
CHEXA        887       4     927     720     891     982    1279    1072+
+           1243    1334
CHEXA        888       4    1053     708    1010    1039    1405    1060+
+           1362    1391
CHEXA        889       4     934     966    1011     983    1286    1318+
+           1363    1335
CHEXA        890       4     952     820     941     836    1304    1172+
+           1293    1188
CHEXA        891       4     809    1042    1054     810    1161    1394+
+           1406    1162
CHEXA        892       4     823     790     793     838    1175    1142+
+           1145    1190
CHEXA        893       4     947     875     943     942    1299    1227+
+           1295    1294
CHEXA        894       4     940     900     903     985    1292    1252+
+           1255    1337
CHEXA        895       4     770     705     708    1053    1122    1057+
+           1060    1405
CHEXA        896       4     955     984     947     946    1307    1336+
+           1299    1298
CHEXA        897       4     930     749     906     931    1282    1101+
+           1258    1283
CHEXA        898       4     945     973    1017     992    1297    1325+
+           1369    1344
CHEXA        899       4     744     837     863     993    1096    1189+
+           1215    1345
CHEXA        900       4    1044     761     912     849    1396    1113+
+           1264    1201
CHEXA        901       4    1045     812     839     999    1397    1164+
+           1191    1351
CHEXA        902       4     950     767     915     996    1302    1119+
+           1267    1348
CHEXA        903       4    1000     775     918    1001    1352    1127+
+           1270    1353
CHEXA        904       4     958     980     714     713    1310    1332+
+           1066    1065
CHEXA        905       4     715     726     840    1028    1067    1078+
+           1192    1380
CHEXA        906       4    1031     797     928     883    1383    1149+
+           1280    1235
CHEXA        907       4     974    1018     873     872    1326    1370+
+           1225    1224
CHEXA        908       4     707     961    1044    1009    1059    1313+
+           1396    1361
CHEXA        909       4     964     803     935    1006    1316    1155+
+           1287    1358
CHEXA        910       4    1042    1047    1055    1054    1394    1399+
+           1407    1406
CHEXA        911       4    1007     811     937    1008    1359    1163+
+           1289    1360
CHEXA        912       4     719    1024    1049     890    1071    1376+
+           1401    1242
CHEXA        913       4    1041     939     917     916    1393    1291+
+           1269    1268
CHEXA        914       4     760    1008     859     911    1112    1360+
+           1211    1263
CHEXA        915       4     873     831     929     874    1225    1183+
+           1281    1226
CHEXA        916       4     870    1020    1031    1030    1222    1372+
+           1383    1382
CHEXA        917       4     712     711     762    1050    1064    1063+
+           1114    1402
CHEXA        918       4     863     816     869     868    1215    1168+
+           1221    1220
CHEXA        919       4    1026    1019     954     953    1378    1371+
+           1306    1305
CHEXA        920       4     969    1022     718     717    1321    1374+
+           1070    1069
CHEXA        921       4     748    1033     722     721    1100    1385+
+           1074    1073
CHEXA        922       4     871     870    1030    1038    1223    1222+
+           1382    1390
CHEXA        923       4     875     874     879     943    1227    1226+
+           1231    1295
CHEXA        924       4    1049    1048    1056     865    1401    1400+
+           1408    1217
CHEXA        925       4     778     854     731     730    1130    1206+
+           1083    1082
CHEXA        926       4     883     928     845     844    1235    1280+
+           1197    1196
CHEXA        927       4     976     862     739     738    1328    1214+
+           1091    1090
CHEXA        928       4    1010    1009     848    1015    1362    1361+
+           1200    1367
CHEXA        929       4     977    1003     747     746    1329    1355+
+           1099    1098
CHEXA        930       4     774    1037     751     750    1126    1389+
+           1103    1102
CHEXA        931       4     751    1052    1046     752    1103    1404+
+           1398    1104
CHEXA        932       4     981     886     759     758    1333    1238+
+           1111    1110
CHEXA        933       4     982     891     765     764    1334    1243+
+           1117    1116
CHEXA        934       4     920     978    1045     932    1272    1330+
+           1397    1284
CHEXA        935       4     983    1011     773     772    1335    1363+
+           1125    1124
CHEXA        936       4     810    1054     781     780    1162    1406+
+           1133    1132
CHEXA        937       4     874     929     880     879    1226    1281+
+           1232    1231
CHEXA        938       4     971     850     952     905    1323    1202+
+           1304    1257
CHEXA        939       4     985     903     795     794    1337    1255+
+           1147    1146
CHEXA        940       4     931     906     801     800    1283    1258+
+           1153    1152
CHEXA        941       4    1019     910     975     954    1371    1262+
+           1327    1306
CHEXA        942       4     992    1017     809     808    1344    1369+
+           1161    1160
CHEXA        943       4     881     800     803     964    1233    1152+
+           1155    1316
CHEXA        944       4     849     912     818     817    1201    1264+
+           1170    1169
CHEXA        945       4     991     734     737     919    1343    1086+
+           1089    1271
CHEXA        946       4     999     839     826     825    1351    1191+
+           1178    1177
CHEXA        947       4     996     915     829     828    1348    1267+
+           1181    1180
CHEXA        948       4    1001     918     833     832    1353    1270+
+           1185    1184
CHEXA        949       4    1028     840     843    1029    1380    1192+
+           1195    1381
CHEXA        950       4     886     885    1007     759    1238    1237+
+           1359    1111
CHEXA        951       4     726    1051     841     840    1078    1403+
+           1193    1192
CHEXA        952       4    1035     888     889     965    1387    1240+
+           1241    1317
CHEXA        953       4    1009    1044     849     848    1361    1396+
+           1201    1200
CHEXA        954       4     987     946     822     821    1339    1298+
+           1174    1173
CHEXA        955       4    1054    1055     855     781    1406    1407+
+           1207    1133
CHEXA        956       4    1008     937     860     859    1360    1289+
+           1212    1211
CHEXA        957       4    1006     935     852     851    1358    1287+
+           1204    1203
CHEXA        958       4     890    1049     865     864    1242    1401+
+           1217    1216
CHEXA        959       4     865    1056     876     866    1217    1408+
+           1228    1218
CHEXA        960       4    1020     794     797    1031    1372    1146+
+           1149    1383
$*  Mesh Collector: Laminate1-Extrusion
$*  Mesh: Laminate1-Ply3
CHEXA        961       5    1057    1058    1059    1060    1409    1410+
+           1411    1412
CHEXA        962       5    1061    1062    1063    1064    1413    1414+
+           1415    1416
CHEXA        963       5    1065    1066    1067    1068    1417    1418+
+           1419    1420
CHEXA        964       5    1069    1070    1071    1072    1421    1422+
+           1423    1424
CHEXA        965       5    1073    1074    1075    1076    1425    1426+
+           1427    1428
CHEXA        966       5    1066    1077    1078    1067    1418    1429+
+           1430    1419
CHEXA        967       5    1075    1079    1080    1081    1427    1431+
+           1432    1433
CHEXA        968       5    1082    1083    1084    1085    1434    1435+
+           1436    1437
CHEXA        969       5    1086    1087    1088    1089    1438    1439+
+           1440    1441
CHEXA        970       5    1090    1091    1092    1093    1442    1443+
+           1444    1445
CHEXA        971       5    1094    1095    1096    1097    1446    1447+
+           1448    1449
CHEXA        972       5    1098    1099    1100    1101    1450    1451+
+           1452    1453
CHEXA        973       5    1102    1103    1104    1105    1454    1455+
+           1456    1457
CHEXA        974       5    1106    1107    1108    1109    1458    1459+
+           1460    1461
CHEXA        975       5    1110    1111    1112    1113    1462    1463+
+           1464    1465
CHEXA        976       5    1114    1106    1109    1115    1466    1458+
+           1461    1467
CHEXA        977       5    1116    1117    1118    1119    1468    1469+
+           1470    1471
CHEXA        978       5    1120    1121    1057    1122    1472    1473+
+           1409    1474
CHEXA        979       5    1074    1123    1079    1075    1426    1475+
+           1431    1427
CHEXA        980       5    1124    1125    1126    1127    1476    1477+
+           1478    1479
CHEXA        981       5    1128    1129    1130    1131    1480    1481+
+           1482    1483
CHEXA        982       5    1132    1133    1134    1135    1484    1485+
+           1486    1487
CHEXA        983       5    1136    1137    1138    1139    1488    1489+
+           1490    1491
CHEXA        984       5    1140    1141    1062    1061    1492    1493+
+           1414    1413
CHEXA        985       5    1142    1143    1144    1145    1494    1495+
+           1496    1497
CHEXA        986       5    1146    1147    1148    1149    1498    1499+
+           1500    1501
CHEXA        987       5    1143    1150    1151    1144    1495    1502+
+           1503    1496
CHEXA        988       5    1152    1153    1154    1155    1504    1505+
+           1506    1507
CHEXA        989       5    1156    1157    1158    1159    1508    1509+
+           1510    1511
CHEXA        990       5    1160    1161    1162    1163    1512    1513+
+           1514    1515
CHEXA        991       5    1131    1130    1082    1164    1483    1482+
+           1434    1516
CHEXA        992       5    1165    1166    1167    1168    1517    1518+
+           1519    1520
CHEXA        993       5    1169    1170    1171    1172    1521    1522+
+           1523    1524
CHEXA        994       5    1173    1174    1175    1176    1525    1526+
+           1527    1528
CHEXA        995       5    1177    1178    1136    1179    1529    1530+
+           1488    1531
CHEXA        996       5    1180    1181    1182    1183    1532    1533+
+           1534    1535
CHEXA        997       5    1184    1185    1186    1187    1536    1537+
+           1538    1539
CHEXA        998       5    1095    1188    1189    1096    1447    1540+
+           1541    1448
CHEXA        999       5    1190    1145    1087    1086    1542    1497+
+           1439    1438
CHEXA       1000       5    1164    1082    1085    1191    1516    1434+
+           1437    1543
CHEXA       1001       5    1192    1193    1194    1195    1544    1545+
+           1546    1547
CHEXA       1002       5    1196    1197    1198    1199    1548    1549+
+           1550    1551
CHEXA       1003       5    1200    1201    1169    1202    1552    1553+
+           1521    1554
CHEXA       1004       5    1203    1204    1205    1206    1555    1556+
+           1557    1558
CHEXA       1005       5    1133    1207    1208    1134    1485    1559+
+           1560    1486
CHEXA       1006       5    1209    1093    1210    1166    1561    1445+
+           1562    1518
CHEXA       1007       5    1211    1212    1213    1214    1563    1564+
+           1565    1566
CHEXA       1008       5    1189    1165    1168    1215    1541    1517+
+           1520    1567
CHEXA       1009       5    1216    1217    1218    1219    1568    1569+
+           1570    1571
CHEXA       1010       5    1220    1221    1222    1223    1572    1573+
+           1574    1575
CHEXA       1011       5    1224    1225    1226    1227    1576    1577+
+           1578    1579
CHEXA       1012       5    1218    1228    1229    1230    1570    1580+
+           1581    1582
CHEXA       1013       5    1231    1232    1233    1150    1583    1584+
+           1585    1502
CHEXA       1014       5    1234    1235    1196    1236    1586    1587+
+           1548    1588
CHEXA       1015       5    1159    1158    1237    1238    1511    1510+
+           1589    1590
CHEXA       1016       5    1092    1065    1068    1239    1444    1417+
+           1420    1591
CHEXA       1017       5    1240    1220    1223    1241    1592    1572+
+           1575    1593
CHEXA       1018       5    1072    1071    1242    1243    1424    1423+
+           1594    1595
CHEXA       1019       5    1076    1075    1081    1244    1428    1427+
+           1433    1596
CHEXA       1020       5    1121    1245    1058    1057    1473    1597+
+           1410    1409
CHEXA       1021       5    1062    1246    1247    1063    1414    1598+
+           1599    1415
CHEXA       1022       5    1081    1080    1248    1249    1433    1432+
+           1600    1601
CHEXA       1023       5    1085    1084    1250    1251    1437    1436+
+           1602    1603
CHEXA       1024       5    1252    1253    1254    1255    1604    1605+
+           1606    1607
CHEXA       1025       5    1256    1257    1095    1094    1608    1609+
+           1447    1446
CHEXA       1026       5    1101    1100    1073    1258    1453    1452+
+           1425    1610
CHEXA       1027       5    1105    1104    1259    1260    1457    1456+
+           1611    1612
CHEXA       1028       5    1109    1108    1261    1262    1461    1460+
+           1613    1614
CHEXA       1029       5    1113    1112    1263    1264    1465    1464+
+           1615    1616
CHEXA       1030       5    1250    1184    1187    1265    1602    1536+
+           1539    1617
CHEXA       1031       5    1191    1085    1251    1178    1543    1437+
+           1603    1530
CHEXA       1032       5    1119    1118    1266    1267    1471    1470+
+           1618    1619
CHEXA       1033       5    1268    1269    1121    1120    1620    1621+
+           1473    1472
CHEXA       1034       5    1127    1126    1102    1270    1479    1478+
+           1454    1622
CHEXA       1035       5    1271    1089    1272    1273    1623    1441+
+           1624    1625
CHEXA       1036       5    1135    1134    1274    1275    1487    1486+
+           1626    1627
CHEXA       1037       5    1139    1138    1276    1277    1491    1490+
+           1628    1629
CHEXA       1038       5    1145    1144    1278    1087    1497    1496+
+           1630    1439
CHEXA       1039       5    1149    1148    1279    1280    1501    1500+
+           1631    1632
CHEXA       1040       5    1281    1282    1283    1232    1633    1634+
+           1635    1584
CHEXA       1041       5    1273    1272    1284    1285    1625    1624+
+           1636    1637
CHEXA       1042       5    1155    1154    1286    1287    1507    1506+
+           1638    1639
CHEXA       1043       5    1278    1288    1129    1128    1630    1640+
+           1481    1480
CHEXA       1044       5    1163    1162    1132    1289    1515    1514+
+           1484    1641
CHEXA       1045       5    1290    1177    1179    1291    1642    1529+
+           1531    1643
CHEXA       1046       5    1166    1210    1292    1167    1518    1562+
+           1644    1519
CHEXA       1047       5    1172    1171    1209    1293    1524    1523+
+           1561    1645
CHEXA       1048       5    1294    1295    1143    1142    1646    1647+
+           1495    1494
CHEXA       1049       5    1179    1136    1139    1296    1531    1488+
+           1491    1648
CHEXA       1050       5    1183    1182    1282    1281    1535    1534+
+           1634    1633
CHEXA       1051       5    1187    1186    1297    1157    1539    1538+
+           1649    1509
CHEXA       1052       5    1298    1299    1294    1174    1650    1651+
+           1646    1526
CHEXA       1053       5    1195    1194    1300    1301    1547    1546+
+           1652    1653
CHEXA       1054       5    1199    1198    1302    1303    1551    1550+
+           1654    1655
CHEXA       1055       5    1247    1236    1107    1106    1599    1588+
+           1459    1458
CHEXA       1056       5    1202    1169    1172    1304    1554    1521+
+           1524    1656
CHEXA       1057       5    1305    1306    1307    1308    1657    1658+
+           1659    1660
CHEXA       1058       5    1134    1208    1309    1274    1486    1560+
+           1661    1626
CHEXA       1059       5    1214    1213    1310    1091    1566    1565+
+           1662    1443
CHEXA       1060       5    1219    1218    1230    1311    1571    1570+
+           1582    1663
CHEXA       1061       5    1058    1312    1313    1059    1410    1664+
+           1665    1411
CHEXA       1062       5    1230    1229    1314    1315    1582    1581+
+           1666    1667
CHEXA       1063       5    1150    1233    1316    1151    1502    1585+
+           1668    1503
CHEXA       1064       5    1236    1196    1199    1107    1588    1548+
+           1551    1459
CHEXA       1065       5    1317    1241    1141    1140    1669    1593+
+           1493    1492
CHEXA       1066       5    1093    1092    1239    1210    1445    1444+
+           1591    1562
CHEXA       1067       5    1243    1242    1216    1117    1595    1594+
+           1568    1469
CHEXA       1068       5    1244    1081    1249    1318    1596    1433+
+           1601    1670
CHEXA       1069       5    1257    1304    1188    1095    1609    1656+
+           1540    1447
CHEXA       1070       5    1249    1248    1319    1320    1601    1600+
+           1671    1672
CHEXA       1071       5    1251    1250    1265    1137    1603    1602+
+           1617    1489
CHEXA       1072       5    1144    1151    1288    1278    1496    1503+
+           1640    1630
CHEXA       1073       5    1255    1254    1321    1147    1607    1606+
+           1673    1499
CHEXA       1074       5    1322    1323    1257    1256    1674    1675+
+           1609    1608
CHEXA       1075       5    1258    1073    1076    1153    1610    1425+
+           1428    1505
CHEXA       1076       5    1260    1259    1324    1325    1612    1611+
+           1676    1677
CHEXA       1077       5    1262    1261    1326    1327    1614    1613+
+           1678    1679
CHEXA       1078       5    1264    1263    1328    1170    1616    1615+
+           1680    1522
CHEXA       1079       5    1246    1234    1236    1247    1598    1586+
+           1588    1599
CHEXA       1080       5    1267    1266    1329    1181    1619    1618+
+           1681    1533
CHEXA       1081       5    1088    1128    1131    1330    1440    1480+
+           1483    1682
CHEXA       1082       5    1270    1102    1105    1185    1622    1454+
+           1457    1537
CHEXA       1083       5    1275    1274    1331    1332    1627    1626+
+           1683    1684
CHEXA       1084       5    1277    1276    1333    1312    1629    1628+
+           1685    1664
CHEXA       1085       5    1087    1278    1128    1088    1439    1630+
+           1480    1440
CHEXA       1086       5    1280    1279    1334    1197    1632    1631+
+           1686    1549
CHEXA       1087       5    1287    1286    1335    1204    1639    1638+
+           1687    1556
CHEXA       1088       5    1306    1327    1336    1307    1658    1679+
+           1688    1659
CHEXA       1089       5    1289    1132    1135    1212    1641    1484+
+           1487    1564
CHEXA       1090       5    1210    1239    1252    1292    1562    1591+
+           1604    1644
CHEXA       1091       5    1167    1292    1337    1338    1519    1644+
+           1689    1690
CHEXA       1092       5    1296    1139    1277    1245    1648    1491+
+           1629    1597
CHEXA       1093       5    1308    1307    1298    1339    1660    1659+
+           1650    1691
CHEXA       1094       5    1259    1340    1341    1324    1611    1692+
+           1693    1676
CHEXA       1095       5    1342    1190    1086    1343    1694    1542+
+           1438    1695
CHEXA       1096       5    1157    1297    1344    1158    1509    1649+
+           1696    1510
CHEXA       1097       5    1345    1215    1220    1240    1697    1567+
+           1572    1592
CHEXA       1098       5    1301    1300    1346    1347    1653    1652+
+           1698    1699
CHEXA       1099       5    1303    1302    1348    1349    1655    1654+
+           1700    1701
CHEXA       1100       5    1350    1351    1177    1290    1702    1703+
+           1529    1642
CHEXA       1101       5    1083    1352    1353    1084    1435    1704+
+           1705    1436
CHEXA       1102       5    1274    1309    1354    1331    1626    1661+
+           1706    1683
CHEXA       1103       5    1265    1187    1157    1156    1617    1539+
+           1509    1508
CHEXA       1104       5    1091    1310    1065    1092    1443    1662+
+           1417    1444
CHEXA       1105       5    1311    1230    1315    1355    1663    1582+
+           1667    1707
CHEXA       1106       5    1315    1314    1356    1357    1667    1666+
+           1708    1709
CHEXA       1107       5    1151    1316    1358    1288    1503    1668+
+           1710    1640
CHEXA       1108       5    1107    1199    1303    1108    1459    1551+
+           1655    1460
CHEXA       1109       5    1111    1359    1360    1112    1463    1711+
+           1712    1464
CHEXA       1110       5    1060    1059    1361    1362    1412    1411+
+           1713    1714
CHEXA       1111       5    1117    1216    1219    1118    1469    1568+
+           1571    1470
CHEXA       1112       5    1318    1249    1320    1363    1670    1601+
+           1672    1715
CHEXA       1113       5    1320    1319    1364    1365    1672    1671+
+           1716    1717
CHEXA       1114       5    1137    1265    1156    1138    1489    1617+
+           1508    1490
CHEXA       1115       5    1089    1088    1330    1272    1441    1440+
+           1682    1624
CHEXA       1116       5    1147    1321    1069    1148    1499    1673+
+           1421    1500
CHEXA       1117       5    1366    1367    1323    1322    1718    1719+
+           1675    1674
CHEXA       1118       5    1153    1076    1244    1154    1505    1428+
+           1596    1506
CHEXA       1119       5    1206    1205    1352    1083    1558    1557+
+           1704    1435
CHEXA       1120       5    1325    1324    1368    1369    1677    1676+
+           1720    1721
CHEXA       1121       5    1261    1349    1370    1326    1613    1701+
+           1722    1678
CHEXA       1122       5    1327    1326    1224    1336    1679    1678+
+           1576    1688
CHEXA       1123       5    1170    1328    1090    1171    1522    1680+
+           1442    1523
CHEXA       1124       5    1115    1109    1262    1371    1467    1461+
+           1614    1723
CHEXA       1125       5    1181    1329    1098    1182    1533    1681+
+           1450    1534
CHEXA       1126       5    1185    1105    1260    1186    1537    1457+
+           1612    1538
CHEXA       1127       5    1332    1331    1077    1066    1684    1683+
+           1429    1418
CHEXA       1128       5    1312    1333    1110    1313    1664    1685+
+           1462    1665
CHEXA       1129       5    1063    1247    1106    1114    1415    1599+
+           1458    1466
CHEXA       1130       5    1197    1334    1116    1198    1549    1686+
+           1468    1550
CHEXA       1131       5    1204    1335    1124    1205    1556    1687+
+           1476    1557
CHEXA       1132       5    1212    1135    1275    1213    1564    1487+
+           1627    1565
CHEXA       1133       5    1239    1068    1253    1252    1591    1420+
+           1605    1604
CHEXA       1134       5    1338    1337    1146    1372    1690    1689+
+           1498    1724
CHEXA       1135       5    1245    1277    1312    1058    1597    1629+
+           1664    1410
CHEXA       1136       5    1232    1283    1152    1233    1584    1635+
+           1504    1585
CHEXA       1137       5    1324    1341    1373    1368    1676    1693+
+           1725    1720
CHEXA       1138       5    1158    1344    1160    1237    1510    1696+
+           1512    1589
CHEXA       1139       5    1374    1301    1347    1070    1726    1653+
+           1699    1422
CHEXA       1140       5    1347    1346    1375    1376    1699    1698+
+           1727    1728
CHEXA       1141       5    1349    1348    1180    1370    1701    1700+
+           1532    1722
CHEXA       1142       5    1168    1167    1338    1221    1520    1519+
+           1690    1573
CHEXA       1143       5    1377    1115    1371    1378    1729    1467+
+           1723    1730
CHEXA       1144       5    1331    1354    1379    1077    1683    1706+
+           1731    1429
CHEXA       1145       5    1253    1380    1381    1254    1605    1732+
+           1733    1606
CHEXA       1146       5    1382    1383    1235    1234    1734    1735+
+           1587    1586
CHEXA       1147       5    1355    1315    1357    1099    1707    1667+
+           1709    1451
CHEXA       1148       5    1357    1356    1384    1385    1709    1708+
+           1736    1737
CHEXA       1149       5    1288    1358    1203    1129    1640    1710+
+           1555    1481
CHEXA       1150       5    1108    1303    1349    1261    1460    1655+
+           1701    1613
CHEXA       1151       5    1386    1345    1240    1387    1738    1697+
+           1592    1739
CHEXA       1152       5    1293    1209    1166    1165    1645    1561+
+           1518    1517
CHEXA       1153       5    1118    1219    1311    1266    1470    1571+
+           1663    1618
CHEXA       1154       5    1363    1320    1365    1125    1715    1672+
+           1717    1477
CHEXA       1155       5    1365    1364    1388    1389    1717    1716+
+           1740    1741
CHEXA       1156       5    1138    1156    1159    1276    1490    1508+
+           1511    1628
CHEXA       1157       5    1390    1382    1234    1246    1742    1734+
+           1586    1598
CHEXA       1158       5    1295    1231    1150    1143    1647    1583+
+           1502    1495
CHEXA       1159       5    1148    1069    1072    1279    1500    1421+
+           1424    1631
CHEXA       1160       5    1391    1362    1367    1366    1743    1714+
+           1719    1718
CHEXA       1161       5    1154    1244    1318    1286    1506    1596+
+           1670    1638
CHEXA       1162       5    1392    1290    1291    1393    1744    1642+
+           1643    1745
CHEXA       1163       5    1369    1368    1394    1161    1721    1720+
+           1746    1513
CHEXA       1164       5    1269    1296    1245    1121    1621    1648+
+           1597    1473
CHEXA       1165       5    1178    1251    1137    1136    1530    1603+
+           1489    1488
CHEXA       1166       5    1336    1224    1227    1299    1688    1576+
+           1579    1651
CHEXA       1167       5    1171    1090    1093    1209    1523    1442+
+           1445    1561
CHEXA       1168       5    1285    1284    1350    1395    1637    1636+
+           1702    1747
CHEXA       1169       5    1182    1098    1101    1282    1534    1450+
+           1453    1634
CHEXA       1170       5    1381    1195    1301    1374    1733    1547+
+           1653    1726
CHEXA       1171       5    1186    1260    1325    1297    1538    1612+
+           1677    1649
CHEXA       1172       5    1395    1350    1290    1392    1747    1702+
+           1642    1744
CHEXA       1173       5    1097    1096    1345    1386    1449    1448+
+           1697    1738
CHEXA       1174       5    1313    1110    1113    1396    1665    1462+
+           1465    1748
CHEXA       1175       5    1330    1131    1164    1397    1682    1483+
+           1516    1749
CHEXA       1176       5    1198    1116    1119    1302    1550    1468+
+           1471    1654
CHEXA       1177       5    1205    1124    1127    1352    1557    1476+
+           1479    1704
CHEXA       1178       5    1104    1398    1340    1259    1456    1750+
+           1692    1611
CHEXA       1179       5    1213    1275    1332    1310    1565    1627+
+           1684    1662
CHEXA       1180       5    1291    1179    1296    1269    1643    1531+
+           1648    1621
CHEXA       1181       5    1068    1067    1380    1253    1420    1419+
+           1732    1605
CHEXA       1182       5    1241    1223    1390    1141    1593    1575+
+           1742    1493
CHEXA       1183       5    1284    1397    1351    1350    1636    1749+
+           1703    1702
CHEXA       1184       5    1176    1175    1190    1342    1528    1527+
+           1542    1694
CHEXA       1185       5    1368    1373    1399    1394    1720    1725+
+           1751    1746
CHEXA       1186       5    1237    1160    1163    1359    1589    1512+
+           1515    1711
CHEXA       1187       5    1070    1347    1376    1071    1422    1699+
+           1728    1423
CHEXA       1188       5    1174    1294    1142    1175    1526    1646+
+           1494    1527
CHEXA       1189       5    1376    1375    1400    1401    1728    1727+
+           1752    1753
CHEXA       1190       5    1370    1180    1183    1225    1722    1532+
+           1535    1577
CHEXA       1191       5    1221    1338    1372    1222    1573    1690+
+           1724    1574
CHEXA       1192       5    1402    1114    1115    1377    1754    1466+
+           1467    1729
CHEXA       1193       5    1077    1379    1403    1078    1429    1731+
+           1755    1430
CHEXA       1194       5    1254    1381    1374    1321    1606    1733+
+           1726    1673
CHEXA       1195       5    1099    1357    1385    1100    1451    1709+
+           1737    1452
CHEXA       1196       5    1141    1390    1246    1062    1493    1742+
+           1598    1414
CHEXA       1197       5    1385    1384    1123    1074    1737    1736+
+           1475    1426
CHEXA       1198       5    1129    1203    1206    1130    1481    1555+
+           1558    1482
CHEXA       1199       5    1263    1211    1214    1328    1615    1563+
+           1566    1680
CHEXA       1200       5    1188    1293    1165    1189    1540    1645+
+           1517    1541
CHEXA       1201       5    1266    1311    1355    1329    1618    1663+
+           1707    1681
CHEXA       1202       5    1367    1200    1202    1323    1719    1552+
+           1554    1675
CHEXA       1203       5    1125    1365    1389    1126    1477    1717+
+           1741    1478
CHEXA       1204       5    1389    1388    1404    1103    1741    1740+
+           1756    1455
CHEXA       1205       5    1276    1159    1238    1333    1628    1511+
+           1590    1685
CHEXA       1206       5    1084    1353    1184    1250    1436    1705+
+           1536    1602
CHEXA       1207       5    1279    1072    1243    1334    1631    1424+
+           1595    1686
CHEXA       1208       5    1405    1060    1362    1391    1757    1412+
+           1714    1743
CHEXA       1209       5    1286    1318    1363    1335    1638    1670+
+           1715    1687
CHEXA       1210       5    1304    1172    1293    1188    1656    1524+
+           1645    1540
CHEXA       1211       5    1161    1394    1406    1162    1513    1746+
+           1758    1514
CHEXA       1212       5    1175    1142    1145    1190    1527    1494+
+           1497    1542
CHEXA       1213       5    1299    1227    1295    1294    1651    1579+
+           1647    1646
CHEXA       1214       5    1292    1252    1255    1337    1644    1604+
+           1607    1689
CHEXA       1215       5    1122    1057    1060    1405    1474    1409+
+           1412    1757
CHEXA       1216       5    1307    1336    1299    1298    1659    1688+
+           1651    1650
CHEXA       1217       5    1282    1101    1258    1283    1634    1453+
+           1610    1635
CHEXA       1218       5    1297    1325    1369    1344    1649    1677+
+           1721    1696
CHEXA       1219       5    1096    1189    1215    1345    1448    1541+
+           1567    1697
CHEXA       1220       5    1396    1113    1264    1201    1748    1465+
+           1616    1553
CHEXA       1221       5    1397    1164    1191    1351    1749    1516+
+           1543    1703
CHEXA       1222       5    1302    1119    1267    1348    1654    1471+
+           1619    1700
CHEXA       1223       5    1352    1127    1270    1353    1704    1479+
+           1622    1705
CHEXA       1224       5    1310    1332    1066    1065    1662    1684+
+           1418    1417
CHEXA       1225       5    1067    1078    1192    1380    1419    1430+
+           1544    1732
CHEXA       1226       5    1383    1149    1280    1235    1735    1501+
+           1632    1587
CHEXA       1227       5    1326    1370    1225    1224    1678    1722+
+           1577    1576
CHEXA       1228       5    1059    1313    1396    1361    1411    1665+
+           1748    1713
CHEXA       1229       5    1316    1155    1287    1358    1668    1507+
+           1639    1710
CHEXA       1230       5    1394    1399    1407    1406    1746    1751+
+           1759    1758
CHEXA       1231       5    1359    1163    1289    1360    1711    1515+
+           1641    1712
CHEXA       1232       5    1071    1376    1401    1242    1423    1728+
+           1753    1594
CHEXA       1233       5    1393    1291    1269    1268    1745    1643+
+           1621    1620
CHEXA       1234       5    1112    1360    1211    1263    1464    1712+
+           1563    1615
CHEXA       1235       5    1225    1183    1281    1226    1577    1535+
+           1633    1578
CHEXA       1236       5    1222    1372    1383    1382    1574    1724+
+           1735    1734
CHEXA       1237       5    1064    1063    1114    1402    1416    1415+
+           1466    1754
CHEXA       1238       5    1215    1168    1221    1220    1567    1520+
+           1573    1572
CHEXA       1239       5    1378    1371    1306    1305    1730    1723+
+           1658    1657
CHEXA       1240       5    1321    1374    1070    1069    1673    1726+
+           1422    1421
CHEXA       1241       5    1100    1385    1074    1073    1452    1737+
+           1426    1425
CHEXA       1242       5    1223    1222    1382    1390    1575    1574+
+           1734    1742
CHEXA       1243       5    1227    1226    1231    1295    1579    1578+
+           1583    1647
CHEXA       1244       5    1401    1400    1408    1217    1753    1752+
+           1760    1569
CHEXA       1245       5    1130    1206    1083    1082    1482    1558+
+           1435    1434
CHEXA       1246       5    1235    1280    1197    1196    1587    1632+
+           1549    1548
CHEXA       1247       5    1328    1214    1091    1090    1680    1566+
+           1443    1442
CHEXA       1248       5    1362    1361    1200    1367    1714    1713+
+           1552    1719
CHEXA       1249       5    1329    1355    1099    1098    1681    1707+
+           1451    1450
CHEXA       1250       5    1126    1389    1103    1102    1478    1741+
+           1455    1454
CHEXA       1251       5    1103    1404    1398    1104    1455    1756+
+           1750    1456
CHEXA       1252       5    1333    1238    1111    1110    1685    1590+
+           1463    1462
CHEXA       1253       5    1334    1243    1117    1116    1686    1595+
+           1469    1468
CHEXA       1254       5    1272    1330    1397    1284    1624    1682+
+           1749    1636
CHEXA       1255       5    1335    1363    1125    1124    1687    1715+
+           1477    1476
CHEXA       1256       5    1162    1406    1133    1132    1514    1758+
+           1485    1484
CHEXA       1257       5    1226    1281    1232    1231    1578    1633+
+           1584    1583
CHEXA       1258       5    1323    1202    1304    1257    1675    1554+
+           1656    1609
CHEXA       1259       5    1337    1255    1147    1146    1689    1607+
+           1499    1498
CHEXA       1260       5    1283    1258    1153    1152    1635    1610+
+           1505    1504
CHEXA       1261       5    1371    1262    1327    1306    1723    1614+
+           1679    1658
CHEXA       1262       5    1344    1369    1161    1160    1696    1721+
+           1513    1512
CHEXA       1263       5    1233    1152    1155    1316    1585    1504+
+           1507    1668
CHEXA       1264       5    1201    1264    1170    1169    1553    1616+
+           1522    1521
CHEXA       1265       5    1343    1086    1089    1271    1695    1438+
+           1441    1623
CHEXA       1266       5    1351    1191    1178    1177    1703    1543+
+           1530    1529
CHEXA       1267       5    1348    1267    1181    1180    1700    1619+
+           1533    1532
CHEXA       1268       5    1353    1270    1185    1184    1705    1622+
+           1537    1536
CHEXA       1269       5    1380    1192    1195    1381    1732    1544+
+           1547    1733
CHEXA       1270       5    1238    1237    1359    1111    1590    1589+
+           1711    1463
CHEXA       1271       5    1078    1403    1193    1192    1430    1755+
+           1545    1544
CHEXA       1272       5    1387    1240    1241    1317    1739    1592+
+           1593    1669
CHEXA       1273       5    1361    1396    1201    1200    1713    1748+
+           1553    1552
CHEXA       1274       5    1339    1298    1174    1173    1691    1650+
+           1526    1525
CHEXA       1275       5    1406    1407    1207    1133    1758    1759+
+           1559    1485
CHEXA       1276       5    1360    1289    1212    1211    1712    1641+
+           1564    1563
CHEXA       1277       5    1358    1287    1204    1203    1710    1639+
+           1556    1555
CHEXA       1278       5    1242    1401    1217    1216    1594    1753+
+           1569    1568
CHEXA       1279       5    1217    1408    1228    1218    1569    1760+
+           1580    1570
CHEXA       1280       5    1372    1146    1149    1383    1724    1498+
+           1501    1735
$*  Mesh Collector: Laminate1-Extrusion
$*  Mesh: Laminate1-Ply4
CHEXA       1281       6    1409    1410    1411    1412    1761    1762+
+           1763    1764
CHEXA       1282       6    1413    1414    1415    1416    1765    1766+
+           1767    1768
CHEXA       1283       6    1417    1418    1419    1420    1769    1770+
+           1771    1772
CHEXA       1284       6    1421    1422    1423    1424    1773    1774+
+           1775    1776
CHEXA       1285       6    1425    1426    1427    1428    1777    1778+
+           1779    1780
CHEXA       1286       6    1418    1429    1430    1419    1770    1781+
+           1782    1771
CHEXA       1287       6    1427    1431    1432    1433    1779    1783+
+           1784    1785
CHEXA       1288       6    1434    1435    1436    1437    1786    1787+
+           1788    1789
CHEXA       1289       6    1438    1439    1440    1441    1790    1791+
+           1792    1793
CHEXA       1290       6    1442    1443    1444    1445    1794    1795+
+           1796    1797
CHEXA       1291       6    1446    1447    1448    1449    1798    1799+
+           1800    1801
CHEXA       1292       6    1450    1451    1452    1453    1802    1803+
+           1804    1805
CHEXA       1293       6    1454    1455    1456    1457    1806    1807+
+           1808    1809
CHEXA       1294       6    1458    1459    1460    1461    1810    1811+
+           1812    1813
CHEXA       1295       6    1462    1463    1464    1465    1814    1815+
+           1816    1817
CHEXA       1296       6    1466    1458    1461    1467    1818    1810+
+           1813    1819
CHEXA       1297       6    1468    1469    1470    1471    1820    1821+
+           1822    1823
CHEXA       1298       6    1472    1473    1409    1474    1824    1825+
+           1761    1826
CHEXA       1299       6    1426    1475    1431    1427    1778    1827+
+           1783    1779
CHEXA       1300       6    1476    1477    1478    1479    1828    1829+
+           1830    1831
CHEXA       1301       6    1480    1481    1482    1483    1832    1833+
+           1834    1835
CHEXA       1302       6    1484    1485    1486    1487    1836    1837+
+           1838    1839
CHEXA       1303       6    1488    1489    1490    1491    1840    1841+
+           1842    1843
CHEXA       1304       6    1492    1493    1414    1413    1844    1845+
+           1766    1765
CHEXA       1305       6    1494    1495    1496    1497    1846    1847+
+           1848    1849
CHEXA       1306       6    1498    1499    1500    1501    1850    1851+
+           1852    1853
CHEXA       1307       6    1495    1502    1503    1496    1847    1854+
+           1855    1848
CHEXA       1308       6    1504    1505    1506    1507    1856    1857+
+           1858    1859
CHEXA       1309       6    1508    1509    1510    1511    1860    1861+
+           1862    1863
CHEXA       1310       6    1512    1513    1514    1515    1864    1865+
+           1866    1867
CHEXA       1311       6    1483    1482    1434    1516    1835    1834+
+           1786    1868
CHEXA       1312       6    1517    1518    1519    1520    1869    1870+
+           1871    1872
CHEXA       1313       6    1521    1522    1523    1524    1873    1874+
+           1875    1876
CHEXA       1314       6    1525    1526    1527    1528    1877    1878+
+           1879    1880
CHEXA       1315       6    1529    1530    1488    1531    1881    1882+
+           1840    1883
CHEXA       1316       6    1532    1533    1534    1535    1884    1885+
+           1886    1887
CHEXA       1317       6    1536    1537    1538    1539    1888    1889+
+           1890    1891
CHEXA       1318       6    1447    1540    1541    1448    1799    1892+
+           1893    1800
CHEXA       1319       6    1542    1497    1439    1438    1894    1849+
+           1791    1790
CHEXA       1320       6    1516    1434    1437    1543    1868    1786+
+           1789    1895
CHEXA       1321       6    1544    1545    1546    1547    1896    1897+
+           1898    1899
CHEXA       1322       6    1548    1549    1550    1551    1900    1901+
+           1902    1903
CHEXA       1323       6    1552    1553    1521    1554    1904    1905+
+           1873    1906
CHEXA       1324       6    1555    1556    1557    1558    1907    1908+
+           1909    1910
CHEXA       1325       6    1485    1559    1560    1486    1837    1911+
+           1912    1838
CHEXA       1326       6    1561    1445    1562    1518    1913    1797+
+           1914    1870
CHEXA       1327       6    1563    1564    1565    1566    1915    1916+
+           1917    1918
CHEXA       1328       6    1541    1517    1520    1567    1893    1869+
+           1872    1919
CHEXA       1329       6    1568    1569    1570    1571    1920    1921+
+           1922    1923
CHEXA       1330       6    1572    1573    1574    1575    1924    1925+
+           1926    1927
CHEXA       1331       6    1576    1577    1578    1579    1928    1929+
+           1930    1931
CHEXA       1332       6    1570    1580    1581    1582    1922    1932+
+           1933    1934
CHEXA       1333       6    1583    1584    1585    1502    1935    1936+
+           1937    1854
CHEXA       1334       6    1586    1587    1548    1588    1938    1939+
+           1900    1940
CHEXA       1335       6    1511    1510    1589    1590    1863    1862+
+           1941    1942
CHEXA       1336       6    1444    1417    1420    1591    1796    1769+
+           1772    1943
CHEXA       1337       6    1592    1572    1575    1593    1944    1924+
+           1927    1945
CHEXA       1338       6    1424    1423    1594    1595    1776    1775+
+           1946    1947
CHEXA       1339       6    1428    1427    1433    1596    1780    1779+
+           1785    1948
CHEXA       1340       6    1473    1597    1410    1409    1825    1949+
+           1762    1761
CHEXA       1341       6    1414    1598    1599    1415    1766    1950+
+           1951    1767
CHEXA       1342       6    1433    1432    1600    1601    1785    1784+
+           1952    1953
CHEXA       1343       6    1437    1436    1602    1603    1789    1788+
+           1954    1955
CHEXA       1344       6    1604    1605    1606    1607    1956    1957+
+           1958    1959
CHEXA       1345       6    1608    1609    1447    1446    1960    1961+
+           1799    1798
CHEXA       1346       6    1453    1452    1425    1610    1805    1804+
+           1777    1962
CHEXA       1347       6    1457    1456    1611    1612    1809    1808+
+           1963    1964
CHEXA       1348       6    1461    1460    1613    1614    1813    1812+
+           1965    1966
CHEXA       1349       6    1465    1464    1615    1616    1817    1816+
+           1967    1968
CHEXA       1350       6    1602    1536    1539    1617    1954    1888+
+           1891    1969
CHEXA       1351       6    1543    1437    1603    1530    1895    1789+
+           1955    1882
CHEXA       1352       6    1471    1470    1618    1619    1823    1822+
+           1970    1971
CHEXA       1353       6    1620    1621    1473    1472    1972    1973+
+           1825    1824
CHEXA       1354       6    1479    1478    1454    1622    1831    1830+
+           1806    1974
CHEXA       1355       6    1623    1441    1624    1625    1975    1793+
+           1976    1977
CHEXA       1356       6    1487    1486    1626    1627    1839    1838+
+           1978    1979
CHEXA       1357       6    1491    1490    1628    1629    1843    1842+
+           1980    1981
CHEXA       1358       6    1497    1496    1630    1439    1849    1848+
+           1982    1791
CHEXA       1359       6    1501    1500    1631    1632    1853    1852+
+           1983    1984
CHEXA       1360       6    1633    1634    1635    1584    1985    1986+
+           1987    1936
CHEXA       1361       6    1625    1624    1636    1637    1977    1976+
+           1988    1989
CHEXA       1362       6    1507    1506    1638    1639    1859    1858+
+           1990    1991
CHEXA       1363       6    1630    1640    1481    1480    1982    1992+
+           1833    1832
CHEXA       1364       6    1515    1514    1484    1641    1867    1866+
+           1836    1993
CHEXA       1365       6    1642    1529    1531    1643    1994    1881+
+           1883    1995
CHEXA       1366       6    1518    1562    1644    1519    1870    1914+
+           1996    1871
CHEXA       1367       6    1524    1523    1561    1645    1876    1875+
+           1913    1997
CHEXA       1368       6    1646    1647    1495    1494    1998    1999+
+           1847    1846
CHEXA       1369       6    1531    1488    1491    1648    1883    1840+
+           1843    2000
CHEXA       1370       6    1535    1534    1634    1633    1887    1886+
+           1986    1985
CHEXA       1371       6    1539    1538    1649    1509    1891    1890+
+           2001    1861
CHEXA       1372       6    1650    1651    1646    1526    2002    2003+
+           1998    1878
CHEXA       1373       6    1547    1546    1652    1653    1899    1898+
+           2004    2005
CHEXA       1374       6    1551    1550    1654    1655    1903    1902+
+           2006    2007
CHEXA       1375       6    1599    1588    1459    1458    1951    1940+
+           1811    1810
CHEXA       1376       6    1554    1521    1524    1656    1906    1873+
+           1876    2008
CHEXA       1377       6    1657    1658    1659    1660    2009    2010+
+           2011    2012
CHEXA       1378       6    1486    1560    1661    1626    1838    1912+
+           2013    1978
CHEXA       1379       6    1566    1565    1662    1443    1918    1917+
+           2014    1795
CHEXA       1380       6    1571    1570    1582    1663    1923    1922+
+           1934    2015
CHEXA       1381       6    1410    1664    1665    1411    1762    2016+
+           2017    1763
CHEXA       1382       6    1582    1581    1666    1667    1934    1933+
+           2018    2019
CHEXA       1383       6    1502    1585    1668    1503    1854    1937+
+           2020    1855
CHEXA       1384       6    1588    1548    1551    1459    1940    1900+
+           1903    1811
CHEXA       1385       6    1669    1593    1493    1492    2021    1945+
+           1845    1844
CHEXA       1386       6    1445    1444    1591    1562    1797    1796+
+           1943    1914
CHEXA       1387       6    1595    1594    1568    1469    1947    1946+
+           1920    1821
CHEXA       1388       6    1596    1433    1601    1670    1948    1785+
+           1953    2022
CHEXA       1389       6    1609    1656    1540    1447    1961    2008+
+           1892    1799
CHEXA       1390       6    1601    1600    1671    1672    1953    1952+
+           2023    2024
CHEXA       1391       6    1603    1602    1617    1489    1955    1954+
+           1969    1841
CHEXA       1392       6    1496    1503    1640    1630    1848    1855+
+           1992    1982
CHEXA       1393       6    1607    1606    1673    1499    1959    1958+
+           2025    1851
CHEXA       1394       6    1674    1675    1609    1608    2026    2027+
+           1961    1960
CHEXA       1395       6    1610    1425    1428    1505    1962    1777+
+           1780    1857
CHEXA       1396       6    1612    1611    1676    1677    1964    1963+
+           2028    2029
CHEXA       1397       6    1614    1613    1678    1679    1966    1965+
+           2030    2031
CHEXA       1398       6    1616    1615    1680    1522    1968    1967+
+           2032    1874
CHEXA       1399       6    1598    1586    1588    1599    1950    1938+
+           1940    1951
CHEXA       1400       6    1619    1618    1681    1533    1971    1970+
+           2033    1885
CHEXA       1401       6    1440    1480    1483    1682    1792    1832+
+           1835    2034
CHEXA       1402       6    1622    1454    1457    1537    1974    1806+
+           1809    1889
CHEXA       1403       6    1627    1626    1683    1684    1979    1978+
+           2035    2036
CHEXA       1404       6    1629    1628    1685    1664    1981    1980+
+           2037    2016
CHEXA       1405       6    1439    1630    1480    1440    1791    1982+
+           1832    1792
CHEXA       1406       6    1632    1631    1686    1549    1984    1983+
+           2038    1901
CHEXA       1407       6    1639    1638    1687    1556    1991    1990+
+           2039    1908
CHEXA       1408       6    1658    1679    1688    1659    2010    2031+
+           2040    2011
CHEXA       1409       6    1641    1484    1487    1564    1993    1836+
+           1839    1916
CHEXA       1410       6    1562    1591    1604    1644    1914    1943+
+           1956    1996
CHEXA       1411       6    1519    1644    1689    1690    1871    1996+
+           2041    2042
CHEXA       1412       6    1648    1491    1629    1597    2000    1843+
+           1981    1949
CHEXA       1413       6    1660    1659    1650    1691    2012    2011+
+           2002    2043
CHEXA       1414       6    1611    1692    1693    1676    1963    2044+
+           2045    2028
CHEXA       1415       6    1694    1542    1438    1695    2046    1894+
+           1790    2047
CHEXA       1416       6    1509    1649    1696    1510    1861    2001+
+           2048    1862
CHEXA       1417       6    1697    1567    1572    1592    2049    1919+
+           1924    1944
CHEXA       1418       6    1653    1652    1698    1699    2005    2004+
+           2050    2051
CHEXA       1419       6    1655    1654    1700    1701    2007    2006+
+           2052    2053
CHEXA       1420       6    1702    1703    1529    1642    2054    2055+
+           1881    1994
CHEXA       1421       6    1435    1704    1705    1436    1787    2056+
+           2057    1788
CHEXA       1422       6    1626    1661    1706    1683    1978    2013+
+           2058    2035
CHEXA       1423       6    1617    1539    1509    1508    1969    1891+
+           1861    1860
CHEXA       1424       6    1443    1662    1417    1444    1795    2014+
+           1769    1796
CHEXA       1425       6    1663    1582    1667    1707    2015    1934+
+           2019    2059
CHEXA       1426       6    1667    1666    1708    1709    2019    2018+
+           2060    2061
CHEXA       1427       6    1503    1668    1710    1640    1855    2020+
+           2062    1992
CHEXA       1428       6    1459    1551    1655    1460    1811    1903+
+           2007    1812
CHEXA       1429       6    1463    1711    1712    1464    1815    2063+
+           2064    1816
CHEXA       1430       6    1412    1411    1713    1714    1764    1763+
+           2065    2066
CHEXA       1431       6    1469    1568    1571    1470    1821    1920+
+           1923    1822
CHEXA       1432       6    1670    1601    1672    1715    2022    1953+
+           2024    2067
CHEXA       1433       6    1672    1671    1716    1717    2024    2023+
+           2068    2069
CHEXA       1434       6    1489    1617    1508    1490    1841    1969+
+           1860    1842
CHEXA       1435       6    1441    1440    1682    1624    1793    1792+
+           2034    1976
CHEXA       1436       6    1499    1673    1421    1500    1851    2025+
+           1773    1852
CHEXA       1437       6    1718    1719    1675    1674    2070    2071+
+           2027    2026
CHEXA       1438       6    1505    1428    1596    1506    1857    1780+
+           1948    1858
CHEXA       1439       6    1558    1557    1704    1435    1910    1909+
+           2056    1787
CHEXA       1440       6    1677    1676    1720    1721    2029    2028+
+           2072    2073
CHEXA       1441       6    1613    1701    1722    1678    1965    2053+
+           2074    2030
CHEXA       1442       6    1679    1678    1576    1688    2031    2030+
+           1928    2040
CHEXA       1443       6    1522    1680    1442    1523    1874    2032+
+           1794    1875
CHEXA       1444       6    1467    1461    1614    1723    1819    1813+
+           1966    2075
CHEXA       1445       6    1533    1681    1450    1534    1885    2033+
+           1802    1886
CHEXA       1446       6    1537    1457    1612    1538    1889    1809+
+           1964    1890
CHEXA       1447       6    1684    1683    1429    1418    2036    2035+
+           1781    1770
CHEXA       1448       6    1664    1685    1462    1665    2016    2037+
+           1814    2017
CHEXA       1449       6    1415    1599    1458    1466    1767    1951+
+           1810    1818
CHEXA       1450       6    1549    1686    1468    1550    1901    2038+
+           1820    1902
CHEXA       1451       6    1556    1687    1476    1557    1908    2039+
+           1828    1909
CHEXA       1452       6    1564    1487    1627    1565    1916    1839+
+           1979    1917
CHEXA       1453       6    1591    1420    1605    1604    1943    1772+
+           1957    1956
CHEXA       1454       6    1690    1689    1498    1724    2042    2041+
+           1850    2076
CHEXA       1455       6    1597    1629    1664    1410    1949    1981+
+           2016    1762
CHEXA       1456       6    1584    1635    1504    1585    1936    1987+
+           1856    1937
CHEXA       1457       6    1676    1693    1725    1720    2028    2045+
+           2077    2072
CHEXA       1458       6    1510    1696    1512    1589    1862    2048+
+           1864    1941
CHEXA       1459       6    1726    1653    1699    1422    2078    2005+
+           2051    1774
CHEXA       1460       6    1699    1698    1727    1728    2051    2050+
+           2079    2080
CHEXA       1461       6    1701    1700    1532    1722    2053    2052+
+           1884    2074
CHEXA       1462       6    1520    1519    1690    1573    1872    1871+
+           2042    1925
CHEXA       1463       6    1729    1467    1723    1730    2081    1819+
+           2075    2082
CHEXA       1464       6    1683    1706    1731    1429    2035    2058+
+           2083    1781
CHEXA       1465       6    1605    1732    1733    1606    1957    2084+
+           2085    1958
CHEXA       1466       6    1734    1735    1587    1586    2086    2087+
+           1939    1938
CHEXA       1467       6    1707    1667    1709    1451    2059    2019+
+           2061    1803
CHEXA       1468       6    1709    1708    1736    1737    2061    2060+
+           2088    2089
CHEXA       1469       6    1640    1710    1555    1481    1992    2062+
+           1907    1833
CHEXA       1470       6    1460    1655    1701    1613    1812    2007+
+           2053    1965
CHEXA       1471       6    1738    1697    1592    1739    2090    2049+
+           1944    2091
CHEXA       1472       6    1645    1561    1518    1517    1997    1913+
+           1870    1869
CHEXA       1473       6    1470    1571    1663    1618    1822    1923+
+           2015    1970
CHEXA       1474       6    1715    1672    1717    1477    2067    2024+
+           2069    1829
CHEXA       1475       6    1717    1716    1740    1741    2069    2068+
+           2092    2093
CHEXA       1476       6    1490    1508    1511    1628    1842    1860+
+           1863    1980
CHEXA       1477       6    1742    1734    1586    1598    2094    2086+
+           1938    1950
CHEXA       1478       6    1647    1583    1502    1495    1999    1935+
+           1854    1847
CHEXA       1479       6    1500    1421    1424    1631    1852    1773+
+           1776    1983
CHEXA       1480       6    1743    1714    1719    1718    2095    2066+
+           2071    2070
CHEXA       1481       6    1506    1596    1670    1638    1858    1948+
+           2022    1990
CHEXA       1482       6    1744    1642    1643    1745    2096    1994+
+           1995    2097
CHEXA       1483       6    1721    1720    1746    1513    2073    2072+
+           2098    1865
CHEXA       1484       6    1621    1648    1597    1473    1973    2000+
+           1949    1825
CHEXA       1485       6    1530    1603    1489    1488    1882    1955+
+           1841    1840
CHEXA       1486       6    1688    1576    1579    1651    2040    1928+
+           1931    2003
CHEXA       1487       6    1523    1442    1445    1561    1875    1794+
+           1797    1913
CHEXA       1488       6    1637    1636    1702    1747    1989    1988+
+           2054    2099
CHEXA       1489       6    1534    1450    1453    1634    1886    1802+
+           1805    1986
CHEXA       1490       6    1733    1547    1653    1726    2085    1899+
+           2005    2078
CHEXA       1491       6    1538    1612    1677    1649    1890    1964+
+           2029    2001
CHEXA       1492       6    1747    1702    1642    1744    2099    2054+
+           1994    2096
CHEXA       1493       6    1449    1448    1697    1738    1801    1800+
+           2049    2090
CHEXA       1494       6    1665    1462    1465    1748    2017    1814+
+           1817    2100
CHEXA       1495       6    1682    1483    1516    1749    2034    1835+
+           1868    2101
CHEXA       1496       6    1550    1468    1471    1654    1902    1820+
+           1823    2006
CHEXA       1497       6    1557    1476    1479    1704    1909    1828+
+           1831    2056
CHEXA       1498       6    1456    1750    1692    1611    1808    2102+
+           2044    1963
CHEXA       1499       6    1565    1627    1684    1662    1917    1979+
+           2036    2014
CHEXA       1500       6    1643    1531    1648    1621    1995    1883+
+           2000    1973
CHEXA       1501       6    1420    1419    1732    1605    1772    1771+
+           2084    1957
CHEXA       1502       6    1593    1575    1742    1493    1945    1927+
+           2094    1845
CHEXA       1503       6    1636    1749    1703    1702    1988    2101+
+           2055    2054
CHEXA       1504       6    1528    1527    1542    1694    1880    1879+
+           1894    2046
CHEXA       1505       6    1720    1725    1751    1746    2072    2077+
+           2103    2098
CHEXA       1506       6    1589    1512    1515    1711    1941    1864+
+           1867    2063
CHEXA       1507       6    1422    1699    1728    1423    1774    2051+
+           2080    1775
CHEXA       1508       6    1526    1646    1494    1527    1878    1998+
+           1846    1879
CHEXA       1509       6    1728    1727    1752    1753    2080    2079+
+           2104    2105
CHEXA       1510       6    1722    1532    1535    1577    2074    1884+
+           1887    1929
CHEXA       1511       6    1573    1690    1724    1574    1925    2042+
+           2076    1926
CHEXA       1512       6    1754    1466    1467    1729    2106    1818+
+           1819    2081
CHEXA       1513       6    1429    1731    1755    1430    1781    2083+
+           2107    1782
CHEXA       1514       6    1606    1733    1726    1673    1958    2085+
+           2078    2025
CHEXA       1515       6    1451    1709    1737    1452    1803    2061+
+           2089    1804
CHEXA       1516       6    1493    1742    1598    1414    1845    2094+
+           1950    1766
CHEXA       1517       6    1737    1736    1475    1426    2089    2088+
+           1827    1778
CHEXA       1518       6    1481    1555    1558    1482    1833    1907+
+           1910    1834
CHEXA       1519       6    1615    1563    1566    1680    1967    1915+
+           1918    2032
CHEXA       1520       6    1540    1645    1517    1541    1892    1997+
+           1869    1893
CHEXA       1521       6    1618    1663    1707    1681    1970    2015+
+           2059    2033
CHEXA       1522       6    1719    1552    1554    1675    2071    1904+
+           1906    2027
CHEXA       1523       6    1477    1717    1741    1478    1829    2069+
+           2093    1830
CHEXA       1524       6    1741    1740    1756    1455    2093    2092+
+           2108    1807
CHEXA       1525       6    1628    1511    1590    1685    1980    1863+
+           1942    2037
CHEXA       1526       6    1436    1705    1536    1602    1788    2057+
+           1888    1954
CHEXA       1527       6    1631    1424    1595    1686    1983    1776+
+           1947    2038
CHEXA       1528       6    1757    1412    1714    1743    2109    1764+
+           2066    2095
CHEXA       1529       6    1638    1670    1715    1687    1990    2022+
+           2067    2039
CHEXA       1530       6    1656    1524    1645    1540    2008    1876+
+           1997    1892
CHEXA       1531       6    1513    1746    1758    1514    1865    2098+
+           2110    1866
CHEXA       1532       6    1527    1494    1497    1542    1879    1846+
+           1849    1894
CHEXA       1533       6    1651    1579    1647    1646    2003    1931+
+           1999    1998
CHEXA       1534       6    1644    1604    1607    1689    1996    1956+
+           1959    2041
CHEXA       1535       6    1474    1409    1412    1757    1826    1761+
+           1764    2109
CHEXA       1536       6    1659    1688    1651    1650    2011    2040+
+           2003    2002
CHEXA       1537       6    1634    1453    1610    1635    1986    1805+
+           1962    1987
CHEXA       1538       6    1649    1677    1721    1696    2001    2029+
+           2073    2048
CHEXA       1539       6    1448    1541    1567    1697    1800    1893+
+           1919    2049
CHEXA       1540       6    1748    1465    1616    1553    2100    1817+
+           1968    1905
CHEXA       1541       6    1749    1516    1543    1703    2101    1868+
+           1895    2055
CHEXA       1542       6    1654    1471    1619    1700    2006    1823+
+           1971    2052
CHEXA       1543       6    1704    1479    1622    1705    2056    1831+
+           1974    2057
CHEXA       1544       6    1662    1684    1418    1417    2014    2036+
+           1770    1769
CHEXA       1545       6    1419    1430    1544    1732    1771    1782+
+           1896    2084
CHEXA       1546       6    1735    1501    1632    1587    2087    1853+
+           1984    1939
CHEXA       1547       6    1678    1722    1577    1576    2030    2074+
+           1929    1928
CHEXA       1548       6    1411    1665    1748    1713    1763    2017+
+           2100    2065
CHEXA       1549       6    1668    1507    1639    1710    2020    1859+
+           1991    2062
CHEXA       1550       6    1746    1751    1759    1758    2098    2103+
+           2111    2110
CHEXA       1551       6    1711    1515    1641    1712    2063    1867+
+           1993    2064
CHEXA       1552       6    1423    1728    1753    1594    1775    2080+
+           2105    1946
CHEXA       1553       6    1745    1643    1621    1620    2097    1995+
+           1973    1972
CHEXA       1554       6    1464    1712    1563    1615    1816    2064+
+           1915    1967
CHEXA       1555       6    1577    1535    1633    1578    1929    1887+
+           1985    1930
CHEXA       1556       6    1574    1724    1735    1734    1926    2076+
+           2087    2086
CHEXA       1557       6    1416    1415    1466    1754    1768    1767+
+           1818    2106
CHEXA       1558       6    1567    1520    1573    1572    1919    1872+
+           1925    1924
CHEXA       1559       6    1730    1723    1658    1657    2082    2075+
+           2010    2009
CHEXA       1560       6    1673    1726    1422    1421    2025    2078+
+           1774    1773
CHEXA       1561       6    1452    1737    1426    1425    1804    2089+
+           1778    1777
CHEXA       1562       6    1575    1574    1734    1742    1927    1926+
+           2086    2094
CHEXA       1563       6    1579    1578    1583    1647    1931    1930+
+           1935    1999
CHEXA       1564       6    1753    1752    1760    1569    2105    2104+
+           2112    1921
CHEXA       1565       6    1482    1558    1435    1434    1834    1910+
+           1787    1786
CHEXA       1566       6    1587    1632    1549    1548    1939    1984+
+           1901    1900
CHEXA       1567       6    1680    1566    1443    1442    2032    1918+
+           1795    1794
CHEXA       1568       6    1714    1713    1552    1719    2066    2065+
+           1904    2071
CHEXA       1569       6    1681    1707    1451    1450    2033    2059+
+           1803    1802
CHEXA       1570       6    1478    1741    1455    1454    1830    2093+
+           1807    1806
CHEXA       1571       6    1455    1756    1750    1456    1807    2108+
+           2102    1808
CHEXA       1572       6    1685    1590    1463    1462    2037    1942+
+           1815    1814
CHEXA       1573       6    1686    1595    1469    1468    2038    1947+
+           1821    1820
CHEXA       1574       6    1624    1682    1749    1636    1976    2034+
+           2101    1988
CHEXA       1575       6    1687    1715    1477    1476    2039    2067+
+           1829    1828
CHEXA       1576       6    1514    1758    1485    1484    1866    2110+
+           1837    1836
CHEXA       1577       6    1578    1633    1584    1583    1930    1985+
+           1936    1935
CHEXA       1578       6    1675    1554    1656    1609    2027    1906+
+           2008    1961
CHEXA       1579       6    1689    1607    1499    1498    2041    1959+
+           1851    1850
CHEXA       1580       6    1635    1610    1505    1504    1987    1962+
+           1857    1856
CHEXA       1581       6    1723    1614    1679    1658    2075    1966+
+           2031    2010
CHEXA       1582       6    1696    1721    1513    1512    2048    2073+
+           1865    1864
CHEXA       1583       6    1585    1504    1507    1668    1937    1856+
+           1859    2020
CHEXA       1584       6    1553    1616    1522    1521    1905    1968+
+           1874    1873
CHEXA       1585       6    1695    1438    1441    1623    2047    1790+
+           1793    1975
CHEXA       1586       6    1703    1543    1530    1529    2055    1895+
+           1882    1881
CHEXA       1587       6    1700    1619    1533    1532    2052    1971+
+           1885    1884
CHEXA       1588       6    1705    1622    1537    1536    2057    1974+
+           1889    1888
CHEXA       1589       6    1732    1544    1547    1733    2084    1896+
+           1899    2085
CHEXA       1590       6    1590    1589    1711    1463    1942    1941+
+           2063    1815
CHEXA       1591       6    1430    1755    1545    1544    1782    2107+
+           1897    1896
CHEXA       1592       6    1739    1592    1593    1669    2091    1944+
+           1945    2021
CHEXA       1593       6    1713    1748    1553    1552    2065    2100+
+           1905    1904
CHEXA       1594       6    1691    1650    1526    1525    2043    2002+
+           1878    1877
CHEXA       1595       6    1758    1759    1559    1485    2110    2111+
+           1911    1837
CHEXA       1596       6    1712    1641    1564    1563    2064    1993+
+           1916    1915
CHEXA       1597       6    1710    1639    1556    1555    2062    1991+
+           1908    1907
CHEXA       1598       6    1594    1753    1569    1568    1946    2105+
+           1921    1920
CHEXA       1599       6    1569    1760    1580    1570    1921    2112+
+           1932    1922
CHEXA       1600       6    1724    1498    1501    1735    2076    1850+
+           1853    2087
$*  Mesh Collector: RBE3 Collector(1)
$*  Mesh: connection_mesh(1)
RBE3        1601            2113  1234561.000000     123     742    2106+
+           2109     357     360    1765    1768     709     712     745+
+           1718    1729    1730    1738    1739    1743    1744    1745+
+           1747    1754    1757     691     698     701    1140    1173+
+           1176     768     770     788     581     601     604     613+
+            618     635     638    1798    1801    1824    1826    1844+
+           1877    1880    1960    1972    1975    1977    1989    2009+
+           2012    2021    2026    2043    2046    2047    2070    2081+
+           2082    2090    2091    2095    2096    2097    2099    1317+
+           1322    1339    1342    1343    1366    1377    1378    1657+
+           1660    1669    1674    1691    1694    1695    1256    1268+
+           1271    1273    1285    1305    1308     933     953     956+
+            965     970     987    1472    1474    1492    1413    1416+
+           1446    1449    1608    1620    1623    1625    1637    1053+
+            639     662     673     674     682     683     687     688+
+            689    1386    1387    1391    1392    1393    1395    1402+
+           1405     390     393     416     418     990     991    1014+
+           1025    1026    1034    1035    1039    1040    1041    1043+
+           1050     904     916     919     921     436     469     472+
+            821     824     552     564     567     569    1061    1064+
+           1094    1097    1120    1122    1525    1528
MATCID         1     321
MATCID         1     421
MATCID         1     488
MATCID         1     641
MATCID         1     741
MATCID         1     808
MATCID         1     961
MATCID         1    1061
MATCID         1    1128
MATCID         1    1281
MATCID         1    1381
MATCID         1    1448
MATCID         2     322
MATCID         2     378
MATCID         2     439
MATCID         2     549
MATCID         2     567
MATCID         2     592
MATCID         2     642
MATCID         2     698
MATCID         2     759
MATCID         2     869
MATCID         2     887
MATCID         2     912
MATCID         3     323
MATCID         3     326
MATCID         3     331
MATCID         3     376
MATCID         3     426
MATCID         3     553
MATCID         4     324
MATCID         4     644
MATCID         5     325
MATCID         5     645
MATCID         6     327
MATCID         6     347
MATCID         6     544
MATCID         6     572
MATCID         6     647
MATCID         6     667
MATCID         6     864
MATCID         6     892
MATCID         7     328
MATCID         7     360
MATCID         7     394
MATCID         7     461
MATCID         7     543
MATCID         7     564
MATCID         7     581
MATCID         7     583
MATCID         7     610
MATCID         7     648
MATCID         7     680
MATCID         7     714
MATCID         7     781
MATCID         7     863
MATCID         7     884
MATCID         7     901
MATCID         7     903
MATCID         7     930
MATCID         8     329
MATCID         8     403
MATCID         8     430
MATCID         8     445
MATCID         8     447
MATCID         8     472
MATCID         8     509
MATCID         8     569
MATCID         8     625
MATCID         8     637
MATCID         8     649
MATCID         8     723
MATCID         8     750
MATCID         8     765
MATCID         8     767
MATCID         8     792
MATCID         8     829
MATCID         8     889
MATCID         8     945
MATCID         8     957
MATCID         9     330
MATCID         9     650
MATCID         9     970
MATCID         9    1290
MATCID        10     332
MATCID        10     371
MATCID        10     453
MATCID        10     508
MATCID        10     576
MATCID        10     652
MATCID        10     691
MATCID        10     773
MATCID        10     828
MATCID        10     896
MATCID        10     972
MATCID        10    1011
MATCID        10    1093
MATCID        10    1148
MATCID        10    1216
MATCID        10    1292
MATCID        10    1331
MATCID        10    1413
MATCID        10    1468
MATCID        10    1536
MATCID        11     333
MATCID        11     383
MATCID        11     391
MATCID        11     460
MATCID        11     532
MATCID        11     566
MATCID        11     611
MATCID        11     626
MATCID        11     653
MATCID        11     703
MATCID        11     711
MATCID        11     780
MATCID        11     852
MATCID        11     886
MATCID        11     931
MATCID        11     946
MATCID        11     973
MATCID        11    1023
MATCID        11    1031
MATCID        11    1100
MATCID        11    1172
MATCID        11    1206
MATCID        11    1251
MATCID        11    1266
MATCID        11    1293
MATCID        11    1343
MATCID        11    1351
MATCID        11    1420
MATCID        11    1492
MATCID        11    1526
MATCID        11    1571
MATCID        11    1586
MATCID        12     334
MATCID        12     336    THRU     337
MATCID        12     468
MATCID        12     536
MATCID        12     552
MATCID        12     639
MATCID        12     654
MATCID        12     656    THRU     657
MATCID        12     788
MATCID        12     856
MATCID        12     872
MATCID        12     959
MATCID        12     974
MATCID        12     976    THRU     977
MATCID        12    1108
MATCID        12    1176
MATCID        12    1192
MATCID        12    1279
MATCID        12    1294
MATCID        12    1296    THRU    1297
MATCID        12    1428
MATCID        12    1496
MATCID        12    1512
MATCID        12    1599
MATCID        13     335
MATCID        13     469    THRU     470
MATCID        13     534
MATCID        13     568
MATCID        13     588
MATCID        13     591
MATCID        13     635
MATCID        13     655
MATCID        13     789    THRU     790
MATCID        14     338
MATCID        14     545
MATCID        14     658
MATCID        14     865
MATCID        15     339
MATCID        15     354
MATCID        15     373
MATCID        15     408
MATCID        15     435
MATCID        15     496
MATCID        15     518
MATCID        15     548
MATCID        15     620
MATCID        15     659
MATCID        15     674
MATCID        15     693
MATCID        15     728
MATCID        15     755
MATCID        15     816
MATCID        15     838
MATCID        15     868
MATCID        15     940
MATCID        16     340
MATCID        16     535
MATCID        16     537
MATCID        16     614
MATCID        16     660
MATCID        16     855
MATCID        16     857
MATCID        16     934
MATCID        17     341
MATCID        17     395
MATCID        17     473
MATCID        17     475
MATCID        17     558
MATCID        17     661
MATCID        17     715
MATCID        17     793
MATCID        17     795
MATCID        17     878
MATCID        17     981
MATCID        17    1035
MATCID        17    1113
MATCID        17    1115
MATCID        17    1198
MATCID        17    1301
MATCID        17    1355
MATCID        17    1433
MATCID        17    1435
MATCID        17    1518
MATCID        18     342
MATCID        18     662
MATCID        18     982
MATCID        18    1302
MATCID        19     343
MATCID        19     411
MATCID        19     436
MATCID        19     454
MATCID        19     463
MATCID        19     474
MATCID        19     531
MATCID        19     593
MATCID        19     663
MATCID        19     731
MATCID        19     756
MATCID        19     774
MATCID        19     783
MATCID        19     794
MATCID        19     851
MATCID        19     913
MATCID        20     344
MATCID        20     399
MATCID        20     547
MATCID        20     664
MATCID        20     719
MATCID        20     867
MATCID        21     345
MATCID        21     379
MATCID        22     346
MATCID        22     425
MATCID        22     458
MATCID        22     476
MATCID        22     499
MATCID        22     542
MATCID        22     596
MATCID        22     600
MATCID        22     602
MATCID        22     640
MATCID        22     666
MATCID        22     745
MATCID        22     778
MATCID        22     796
MATCID        22     819
MATCID        22     862
MATCID        22     916
MATCID        22     920
MATCID        22     922
MATCID        22     960
MATCID        22     986
MATCID        23     348
MATCID        23     623
MATCID        23     668
MATCID        23     943
MATCID        23     988
MATCID        23    1263
MATCID        23    1308
MATCID        23    1583
MATCID        24     349
MATCID        24     393
MATCID        24     397
MATCID        24     452
MATCID        24     497
MATCID        24     516
MATCID        24     524
MATCID        24     669
MATCID        24     713
MATCID        24     717
MATCID        24     772
MATCID        24     817
MATCID        24     836
MATCID        24     844
MATCID        25     350
MATCID        25     546
MATCID        25     571
MATCID        25     575
MATCID        25     590
MATCID        25     612
MATCID        25     630
MATCID        25     670
MATCID        25     866
MATCID        25     891
MATCID        25     895
MATCID        25     910
MATCID        25     932
MATCID        25     950
MATCID        25     990
MATCID        25    1186
MATCID        25    1211
MATCID        25    1215
MATCID        25    1230
MATCID        25    1252
MATCID        25    1270
MATCID        26     351
MATCID        26     671
MATCID        26     991
MATCID        26    1311
MATCID        27     352
MATCID        27     368
MATCID        27     406
MATCID        27     450
MATCID        27     493
MATCID        27     533
MATCID        27     541
MATCID        27     579
MATCID        27     585
MATCID        27     631
MATCID        27     672
MATCID        27     688
MATCID        27     726
MATCID        27     770
MATCID        27     813
MATCID        27     853
MATCID        27     861
MATCID        27     899
MATCID        27     905
MATCID        27     951
MATCID        28     353
MATCID        28     416
MATCID        28     419
MATCID        28     434
MATCID        28     443
MATCID        28     483
MATCID        28     539
MATCID        28     607
MATCID        28     618
MATCID        28     673
MATCID        28     736
MATCID        28     739
MATCID        28     754
MATCID        28     763
MATCID        28     803
MATCID        28     859
MATCID        28     927
MATCID        28     938
MATCID        28     993
MATCID        28    1056
MATCID        28    1059
MATCID        28    1074
MATCID        28    1083
MATCID        28    1123
MATCID        28    1179
MATCID        28    1247
MATCID        28    1258
MATCID        28    1313
MATCID        28    1376
MATCID        28    1379
MATCID        28    1394
MATCID        28    1403
MATCID        28    1443
MATCID        28    1499
MATCID        28    1567
MATCID        28    1578
MATCID        29     355
MATCID        29     357
MATCID        29     522
MATCID        29     538
MATCID        29     675
MATCID        29     677
MATCID        29     842
MATCID        29     858
MATCID        30     356
MATCID        30     417
MATCID        30     448
MATCID        30     466
MATCID        30     485
MATCID        30     550
MATCID        30     587
MATCID        30     609
MATCID        30     676
MATCID        30     737
MATCID        30     768
MATCID        30     786
MATCID        30     805
MATCID        30     870
MATCID        30     907
MATCID        30     929
MATCID        31     358
MATCID        31     678
MATCID        32     359
MATCID        32     679
MATCID        33     361
MATCID        33     451
MATCID        33     457
MATCID        33     502
MATCID        33     511
MATCID        33     598
MATCID        33     629
MATCID        33     681
MATCID        33     771
MATCID        33     777
MATCID        33     822
MATCID        33     831
MATCID        33     918
MATCID        33     949
MATCID        34     362
MATCID        34     415
MATCID        34     424
MATCID        34     427
MATCID        34     490
MATCID        34     597
MATCID        34     604
MATCID        34     613
MATCID        34     638
MATCID        34     682
MATCID        34     735
MATCID        34     744
MATCID        34     747
MATCID        34     810
MATCID        34     917
MATCID        34     924
MATCID        34     933
MATCID        34     958
MATCID        35     363
MATCID        35     683
MATCID        35    1003
MATCID        35    1323
MATCID        36     364
MATCID        36     684
MATCID        36    1004
MATCID        36    1324
MATCID        37     365
MATCID        37     449
MATCID        37     520
MATCID        37     608
MATCID        37     685
MATCID        37     769
MATCID        37     840
MATCID        37     928
MATCID        37    1005
MATCID        37    1089
MATCID        37    1160
MATCID        37    1248
MATCID        37    1325
MATCID        37    1409
MATCID        37    1480
MATCID        37    1568
MATCID        38     366
MATCID        38     686
MATCID        38    1006
MATCID        38    1326
MATCID        39     367
MATCID        39     396
MATCID        39     477
MATCID        39     492
MATCID        39     559
MATCID        39     687
MATCID        39     716
MATCID        39     797
MATCID        39     812
MATCID        39     879
MATCID        40     369
MATCID        40     471
MATCID        40     689
MATCID        40     791
MATCID        41     370
MATCID        41     413
MATCID        41     433
MATCID        41     530
MATCID        41     619
MATCID        41     632
MATCID        41     690
MATCID        41     733
MATCID        41     753
MATCID        41     850
MATCID        41     939
MATCID        41     952
MATCID        42     372
MATCID        42     392
MATCID        42     503
MATCID        42     510
MATCID        42     692
MATCID        42     712
MATCID        42     823
MATCID        42     830
MATCID        42    1012
MATCID        42    1032
MATCID        42    1143
MATCID        42    1150
MATCID        42    1332
MATCID        42    1352
MATCID        42    1463
MATCID        42    1470
MATCID        43     374
MATCID        43     446
MATCID        43     694
MATCID        43     766
MATCID        44     375
MATCID        44     565
MATCID        44     695
MATCID        44     885
MATCID        44    1015
MATCID        44    1205
MATCID        44    1335
MATCID        44    1525
MATCID        45     377
MATCID        45     697
MATCID        46     380
MATCID        46     495
MATCID        46     523
MATCID        46     622
MATCID        46     700
MATCID        46     815
MATCID        46     843
MATCID        46     942
MATCID        46    1020
MATCID        46    1135
MATCID        46    1163
MATCID        46    1262
MATCID        46    1340
MATCID        46    1455
MATCID        46    1483
MATCID        46    1582
MATCID        47     381
MATCID        47     701
MATCID        48     382
MATCID        48     402
MATCID        48     428
MATCID        48     455
MATCID        48     521
MATCID        48     589
MATCID        48     702
MATCID        48     722
MATCID        48     748
MATCID        48     775
MATCID        48     841
MATCID        48     909
MATCID        49     384
MATCID        49     704
MATCID        50     385
MATCID        50     407
MATCID        50     429
MATCID        50     504
MATCID        50     527
MATCID        50     705
MATCID        50     727
MATCID        50     749
MATCID        50     824
MATCID        50     847
MATCID        51     386
MATCID        51     400
MATCID        51     412
MATCID        51     557
MATCID        51     577
MATCID        51     601
MATCID        51     617
MATCID        51     634
MATCID        51     706
MATCID        51     720
MATCID        51     732
MATCID        51     877
MATCID        51     897
MATCID        51     921
MATCID        51     937
MATCID        51     954
MATCID        51    1026
MATCID        51    1040
MATCID        51    1052
MATCID        51    1197
MATCID        51    1217
MATCID        51    1241
MATCID        51    1257
MATCID        51    1274
MATCID        51    1346
MATCID        51    1360
MATCID        51    1372
MATCID        51    1517
MATCID        51    1537
MATCID        51    1561
MATCID        51    1577
MATCID        51    1594
MATCID        52     387
MATCID        52     405
MATCID        52     486
MATCID        52     707
MATCID        52     725
MATCID        52     806
MATCID        53     388
MATCID        53     420
MATCID        53     484
MATCID        53     513
MATCID        53     708
MATCID        53     740
MATCID        53     804
MATCID        53     833
MATCID        54     389
MATCID        54     636
MATCID        54     709
MATCID        54     956
MATCID        55     390
MATCID        55     525
MATCID        55     710
MATCID        55     845
MATCID        55    1030
MATCID        55    1165
MATCID        55    1350
MATCID        55    1485
MATCID        56     398
MATCID        56     718
MATCID        56    1038
MATCID        57     401
MATCID        57     479
MATCID        57     515
MATCID        57     563
MATCID        58     404
MATCID        58     616
MATCID        58     724
MATCID        58     936
MATCID        58    1044
MATCID        58    1256
MATCID        59     409
MATCID        59     540
MATCID        59     729
MATCID        59     860
MATCID        60     410
MATCID        60     730
MATCID        60    1050
MATCID        61     414
MATCID        61     734
MATCID        62     418
MATCID        62     438
MATCID        62     562
MATCID        62     738
MATCID        62     758
MATCID        62     882
MATCID        62    1058
MATCID        62    1078
MATCID        62    1202
MATCID        62    1378
MATCID        62    1398
MATCID        62    1522
MATCID        63     422
MATCID        63     440
MATCID        63     465
MATCID        63     481
MATCID        63     501
MATCID        63     561
MATCID        63     599
MATCID        63     627
MATCID        63     742
MATCID        63     760
MATCID        63     785
MATCID        63     801
MATCID        63     821
MATCID        63     881
MATCID        63     919
MATCID        63     947
MATCID        63    1062
MATCID        63    1080
MATCID        63    1105
MATCID        63    1121
MATCID        63    1141
MATCID        63    1201
MATCID        63    1239
MATCID        63    1267
MATCID        63    1382
MATCID        63    1400
MATCID        63    1425
MATCID        63    1441
MATCID        63    1461
MATCID        63    1521
MATCID        63    1559
MATCID        63    1587
MATCID        64     423
MATCID        64     478
MATCID        64     743
MATCID        64     798
MATCID        64    1063
MATCID        64    1118
MATCID        64    1383
MATCID        64    1438
MATCID        65     431
MATCID        65     751
MATCID        65    1071
MATCID        65    1391
MATCID        66     432
MATCID        66     752
MATCID        66    1072
MATCID        66    1392
MATCID        67     437
MATCID        67     621
MATCID        67     757
MATCID        67     941
MATCID        67    1077
MATCID        67    1261
MATCID        67    1397
MATCID        67    1581
MATCID        68     441
MATCID        68     514
MATCID        68     761
MATCID        68     834
MATCID        69     442
MATCID        69     762
MATCID        70     444
MATCID        70     498
MATCID        70     764
MATCID        70     818
MATCID        70    1084
MATCID        70    1138
MATCID        70    1404
MATCID        70    1458
MATCID        71     456
MATCID        71     480
MATCID        71     776
MATCID        71     800
MATCID        71    1096
MATCID        71    1120
MATCID        71    1416
MATCID        71    1440
MATCID        72     459
MATCID        72     582
MATCID        72     779
MATCID        72     902
MATCID        72    1099
MATCID        72    1222
MATCID        72    1419
MATCID        72    1542
MATCID        73     462
MATCID        73     782
MATCID        74     464
MATCID        74     784
MATCID        75     467
MATCID        75     787
MATCID        76     482
MATCID        76     802
MATCID        76    1122
MATCID        77     487
MATCID        77     807
MATCID        77    1127
MATCID        77    1447
MATCID        78     489
MATCID        78     809
MATCID        78    1129
MATCID        79     491
MATCID        79     811
MATCID        80     494
MATCID        80     814
MATCID        80    1134
MATCID        80    1454
MATCID        81     500
MATCID        81     506
MATCID        81     517
MATCID        81     556
MATCID        81     586
MATCID        81     820
MATCID        81     826
MATCID        81     837
MATCID        81     876
MATCID        81     906
MATCID        81    1140
MATCID        81    1146
MATCID        81    1157
MATCID        81    1196
MATCID        81    1226
MATCID        81    1460
MATCID        81    1466
MATCID        81    1477
MATCID        81    1516
MATCID        81    1546
MATCID        82     505
MATCID        83     507
MATCID        83     827
MATCID        84     512
MATCID        84     832
MATCID        84    1152
MATCID        84    1472
MATCID        85     519
MATCID        85     839
MATCID        85    1159
MATCID        85    1479
MATCID        86     526
MATCID        86     555
MATCID        86     846
MATCID        86     875
MATCID        87     528
MATCID        87     848
MATCID        88     529
MATCID        88     595
MATCID        88     849
MATCID        88     915
MATCID        88    1169
MATCID        88    1235
MATCID        88    1489
MATCID        88    1555
MATCID        89     551
MATCID        89     871
MATCID        89    1191
MATCID        89    1511
MATCID        90     554
MATCID        90     874
MATCID        91     560
MATCID        91     880
MATCID        91    1200
MATCID        92     570
MATCID        93     573
MATCID        93     893
MATCID        93    1213
MATCID        93    1533
MATCID        94     574
MATCID        94     894
MATCID        94    1214
MATCID        94    1534
MATCID        95     578
MATCID        95     898
MATCID        96     580
MATCID        96     900
MATCID        96    1220
MATCID        96    1540
MATCID        97     584
MATCID        97     904
MATCID        98     594
MATCID        98     914
MATCID        98    1234
MATCID        98    1554
MATCID        99     603
MATCID        99     923
MATCID        99    1243
MATCID        99    1563
MATCID       100     605
MATCID       100     925
MATCID       100    1245
MATCID       100    1565
MATCID       101     606
MATCID       101     926
MATCID       101    1246
MATCID       101    1566
MATCID       102     615
MATCID       103     624
MATCID       103     944
MATCID       103    1264
MATCID       103    1584
MATCID       104     628
MATCID       104     948
MATCID       104    1268
MATCID       104    1588
MATCID       105     633
MATCID       105     953
MATCID       106     643
MATCID       106     646
MATCID       106     651
MATCID       106     696
MATCID       106     746
MATCID       106     873
MATCID       106     963
MATCID       106     966
MATCID       106     971
MATCID       106    1016
MATCID       106    1066
MATCID       106    1193
MATCID       107     665
MATCID       107     699
MATCID       107     985
MATCID       107    1019
MATCID       108     721
MATCID       108     799
MATCID       108     835
MATCID       108     883
MATCID       108    1041
MATCID       108    1119
MATCID       108    1155
MATCID       108    1203
MATCID       109     825
MATCID       110     854
MATCID       110     888
MATCID       110     908
MATCID       110     911
MATCID       110     955
MATCID       111     890
MATCID       111    1210
MATCID       112     935
MATCID       113     962
MATCID       113    1018
MATCID       113    1079
MATCID       113    1189
MATCID       113    1207
MATCID       113    1232
MATCID       113    1282
MATCID       113    1338
MATCID       113    1399
MATCID       113    1509
MATCID       113    1527
MATCID       113    1552
MATCID       114     964
MATCID       114    1284
MATCID       115     965
MATCID       115    1285
MATCID       116     967
MATCID       116     987
MATCID       116    1184
MATCID       116    1212
MATCID       116    1287
MATCID       116    1307
MATCID       116    1504
MATCID       116    1532
MATCID       117     968
MATCID       117    1000
MATCID       117    1034
MATCID       117    1101
MATCID       117    1183
MATCID       117    1204
MATCID       117    1221
MATCID       117    1223
MATCID       117    1250
MATCID       117    1288
MATCID       117    1320
MATCID       117    1354
MATCID       117    1421
MATCID       117    1503
MATCID       117    1524
MATCID       117    1541
MATCID       117    1543
MATCID       117    1570
MATCID       118     969
MATCID       118    1043
MATCID       118    1070
MATCID       118    1085
MATCID       118    1087
MATCID       118    1112
MATCID       118    1149
MATCID       118    1209
MATCID       118    1265
MATCID       118    1277
MATCID       118    1289
MATCID       118    1363
MATCID       118    1390
MATCID       118    1405
MATCID       118    1407
MATCID       118    1432
MATCID       118    1469
MATCID       118    1529
MATCID       118    1585
MATCID       118    1597
MATCID       119     975
MATCID       119    1109    THRU    1110
MATCID       119    1174
MATCID       119    1208
MATCID       119    1228
MATCID       119    1231
MATCID       119    1275
MATCID       119    1295
MATCID       119    1429    THRU    1430
MATCID       119    1494
MATCID       119    1528
MATCID       119    1548
MATCID       119    1551
MATCID       119    1595
MATCID       120     978
MATCID       120    1185
MATCID       120    1298
MATCID       120    1505
MATCID       121     979
MATCID       121     994
MATCID       121    1013
MATCID       121    1048
MATCID       121    1075
MATCID       121    1136
MATCID       121    1158
MATCID       121    1188
MATCID       121    1260
MATCID       121    1299
MATCID       121    1314
MATCID       121    1333
MATCID       121    1368
MATCID       121    1395
MATCID       121    1456
MATCID       121    1478
MATCID       121    1508
MATCID       121    1580
MATCID       122     980
MATCID       122    1175
MATCID       122    1177
MATCID       122    1254
MATCID       122    1300
MATCID       122    1495
MATCID       122    1497
MATCID       122    1574
MATCID       123     983
MATCID       123    1051
MATCID       123    1076
MATCID       123    1094
MATCID       123    1103
MATCID       123    1114
MATCID       123    1171
MATCID       123    1233
MATCID       123    1303
MATCID       123    1371
MATCID       123    1396
MATCID       123    1414
MATCID       123    1423
MATCID       123    1434
MATCID       123    1491
MATCID       123    1553
MATCID       124     984
MATCID       124    1039
MATCID       124    1187
MATCID       125     989
MATCID       125    1033
MATCID       125    1037
MATCID       125    1092
MATCID       125    1137
MATCID       125    1156
MATCID       125    1164
MATCID       125    1309
MATCID       125    1353
MATCID       125    1357
MATCID       125    1412
MATCID       125    1457
MATCID       125    1476
MATCID       125    1484
MATCID       126     992
MATCID       126    1008
MATCID       126    1046
MATCID       126    1090
MATCID       126    1133
MATCID       126    1173
MATCID       126    1181
MATCID       126    1219
MATCID       126    1225
MATCID       126    1271
MATCID       126    1312
MATCID       126    1328
MATCID       126    1366
MATCID       126    1410
MATCID       126    1453
MATCID       126    1493
MATCID       126    1501
MATCID       126    1539
MATCID       126    1545
MATCID       126    1591
MATCID       127     995
MATCID       127     997
MATCID       127    1162
MATCID       127    1178
MATCID       127    1315
MATCID       127    1317
MATCID       127    1482
MATCID       127    1498
MATCID       128     996
MATCID       128    1057
MATCID       128    1088
MATCID       128    1106
MATCID       128    1125
MATCID       128    1190
MATCID       128    1227
MATCID       128    1249
MATCID       129     998
MATCID       129    1318
MATCID       130     999
MATCID       130    1319
MATCID       131    1001
MATCID       131    1091
MATCID       131    1097
MATCID       131    1142
MATCID       131    1151
MATCID       131    1238
MATCID       131    1269
MATCID       131    1321
MATCID       131    1411
MATCID       131    1417
MATCID       131    1462
MATCID       131    1471
MATCID       131    1558
MATCID       131    1589
MATCID       132    1002
MATCID       132    1055
MATCID       132    1064
MATCID       132    1067
MATCID       132    1130
MATCID       132    1237
MATCID       132    1244
MATCID       132    1253
MATCID       132    1278
MATCID       132    1322
MATCID       132    1375
MATCID       132    1384
MATCID       132    1387
MATCID       132    1450
MATCID       132    1557
MATCID       132    1564
MATCID       132    1573
MATCID       132    1598
MATCID       133    1007
MATCID       133    1036
MATCID       133    1117
MATCID       133    1132
MATCID       133    1199
MATCID       133    1327
MATCID       133    1356
MATCID       133    1437
MATCID       133    1452
MATCID       133    1519
MATCID       134    1009
MATCID       134    1111
MATCID       134    1329
MATCID       134    1431
MATCID       135    1010
MATCID       135    1053
MATCID       135    1073
MATCID       135    1170
MATCID       135    1259
MATCID       135    1272
MATCID       135    1330
MATCID       135    1373
MATCID       135    1393
MATCID       135    1490
MATCID       135    1579
MATCID       135    1592
MATCID       136    1014
MATCID       136    1086
MATCID       136    1334
MATCID       136    1406
MATCID       137    1017
MATCID       137    1337
MATCID       138    1021
MATCID       138    1341
MATCID       139    1022
MATCID       139    1042
MATCID       139    1068
MATCID       139    1095
MATCID       139    1161
MATCID       139    1229
MATCID       139    1342
MATCID       139    1362
MATCID       139    1388
MATCID       139    1415
MATCID       139    1481
MATCID       139    1549
MATCID       140    1024
MATCID       140    1344
MATCID       141    1025
MATCID       141    1047
MATCID       141    1069
MATCID       141    1144
MATCID       141    1167
MATCID       141    1345
MATCID       141    1367
MATCID       141    1389
MATCID       141    1464
MATCID       141    1487
MATCID       142    1027
MATCID       142    1045
MATCID       142    1126
MATCID       142    1347
MATCID       142    1365
MATCID       142    1446
MATCID       143    1028
MATCID       143    1060
MATCID       143    1124
MATCID       143    1153
MATCID       143    1348
MATCID       143    1380
MATCID       143    1444
MATCID       143    1473
MATCID       144    1029
MATCID       144    1276
MATCID       144    1349
MATCID       144    1596
MATCID       145    1049
MATCID       145    1180
MATCID       145    1369
MATCID       145    1500
MATCID       146    1054
MATCID       146    1374
MATCID       147    1065
MATCID       147    1098
MATCID       147    1116
MATCID       147    1139
MATCID       147    1182
MATCID       147    1236
MATCID       147    1240
MATCID       147    1242
MATCID       147    1280
MATCID       147    1306
MATCID       147    1385
MATCID       147    1418
MATCID       147    1436
MATCID       147    1459
MATCID       147    1502
MATCID       147    1556
MATCID       147    1560
MATCID       147    1562
MATCID       147    1600
MATCID       148    1081
MATCID       148    1154
MATCID       148    1401
MATCID       148    1474
MATCID       149    1082
MATCID       149    1402
MATCID       150    1102
MATCID       151    1104
MATCID       151    1424
MATCID       152    1107
MATCID       153    1131
MATCID       153    1451
MATCID       154    1145
MATCID       154    1465
MATCID       155    1147
MATCID       155    1467
MATCID       156    1166
MATCID       156    1195
MATCID       156    1486
MATCID       156    1515
MATCID       157    1168
MATCID       157    1488
MATCID       158    1194
MATCID       158    1514
MATCID       159    1218
MATCID       159    1538
MATCID       160    1224
MATCID       160    1544
MATCID       161    1255
MATCID       161    1575
MATCID       162    1273
MATCID       162    1593
MATCID       163    1283
MATCID       163    1286
MATCID       163    1291
MATCID       163    1336
MATCID       163    1386
MATCID       163    1513
MATCID       164    1304
MATCID       164    1359
MATCID       164    1507
MATCID       165    1305
MATCID       165    1339
MATCID       166    1310
MATCID       166    1506
MATCID       166    1531
MATCID       166    1535
MATCID       166    1550
MATCID       166    1572
MATCID       166    1590
MATCID       167    1316
MATCID       167    1377
MATCID       167    1408
MATCID       167    1426
MATCID       167    1445
MATCID       167    1510
MATCID       167    1547
MATCID       167    1569
MATCID       168    1358
MATCID       169    1361
MATCID       169    1439
MATCID       169    1475
MATCID       169    1523
MATCID       170    1364
MATCID       170    1576
MATCID       171    1370
MATCID       172    1422
MATCID       173    1427
MATCID       174    1442
MATCID       175    1449
MATCID       176    1520
MATCID       177    1530
$*
$* PROPERTY CARDS
$*
$*  Property: Laminate1 - Extrusion
$*  Zone: 1
PCOMPS         3       0      13                 20.0000  0.0000        +
+              1       10.250000 45.0000                     YES     ABS
$*  Property: Laminate1 - Extrusion
$*  Zone: 2
PCOMPS         4       0      13                 20.0000  0.0000        +
+              2       10.250000 -45.000                     YES     ABS
$*  Property: Laminate1 - Extrusion
$*  Zone: 3
PCOMPS         5       0      13                 20.0000  0.0000        +
+              3       10.250000 -45.000                     YES     ABS
$*  Property: Laminate1 - Extrusion
$*  Zone: 4
PCOMPS         6       0      13                 20.0000  0.0000        +
+              4       10.250000 45.0000                     YES     ABS
$*
$* MATERIAL CARDS
$*
$*  Material: Transversal_isotropic::reference_shaft_fem1::[1]
MAT11          11.2100+88.6000+68.6000+60.2700000.2700000.4000004.7000+6+
+       4.7000+63.1000+61.4900-6
$*
$* LOAD AND CONSTRAINT CARDS
$*
$*  Constraint: NoTrans(1)
SPC            1     375     123  0.0000
SPC            1     376     123  0.0000
SPC            1     419     123  0.0000
SPC            1     489     123  0.0000
SPC            1     490     123  0.0000
SPC            1     503     123  0.0000
SPC            1     504     123  0.0000
SPC            1     524     123  0.0000
SPC            1     525     123  0.0000
SPC            1     544     123  0.0000
SPC            1     596     123  0.0000
SPC            1     605     123  0.0000
SPC            1     610     123  0.0000
SPC            1     615     123  0.0000
SPC            1     636     123  0.0000
SPC            1     637     123  0.0000
SPC            1     642     123  0.0000
SPC            1     650     123  0.0000
SPC            1     652     123  0.0000
SPC            1     660     123  0.0000
SPC            1     669     123  0.0000
SPC            1     671     123  0.0000
SPC            1     675     123  0.0000
SPC            1     680     123  0.0000
SPC            1     684     123  0.0000
SPC            1     694     123  0.0000
SPC            1     695     123  0.0000
SPC            1     696     123  0.0000
SPC            1     699     123  0.0000
SPC            1     700     123  0.0000
SPC            1     703     123  0.0000
SPC            1     704     123  0.0000
SPC            1     727     123  0.0000
SPC            1     728     123  0.0000
SPC            1     771     123  0.0000
SPC            1     841     123  0.0000
SPC            1     842     123  0.0000
SPC            1     855     123  0.0000
SPC            1     856     123  0.0000
SPC            1     876     123  0.0000
SPC            1     877     123  0.0000
SPC            1     896     123  0.0000
SPC            1     948     123  0.0000
SPC            1     957     123  0.0000
SPC            1     962     123  0.0000
SPC            1     967     123  0.0000
SPC            1     988     123  0.0000
SPC            1     989     123  0.0000
SPC            1     994     123  0.0000
SPC            1    1002     123  0.0000
SPC            1    1004     123  0.0000
SPC            1    1012     123  0.0000
SPC            1    1021     123  0.0000
SPC            1    1023     123  0.0000
SPC            1    1027     123  0.0000
SPC            1    1032     123  0.0000
SPC            1    1036     123  0.0000
SPC            1    1046     123  0.0000
SPC            1    1047     123  0.0000
SPC            1    1048     123  0.0000
SPC            1    1051     123  0.0000
SPC            1    1052     123  0.0000
SPC            1    1055     123  0.0000
SPC            1    1056     123  0.0000
SPC            1    1079     123  0.0000
SPC            1    1080     123  0.0000
SPC            1    1123     123  0.0000
SPC            1    1193     123  0.0000
SPC            1    1194     123  0.0000
SPC            1    1207     123  0.0000
SPC            1    1208     123  0.0000
SPC            1    1228     123  0.0000
SPC            1    1229     123  0.0000
SPC            1    1248     123  0.0000
SPC            1    1300     123  0.0000
SPC            1    1309     123  0.0000
SPC            1    1314     123  0.0000
SPC            1    1319     123  0.0000
SPC            1    1340     123  0.0000
SPC            1    1341     123  0.0000
SPC            1    1346     123  0.0000
SPC            1    1354     123  0.0000
SPC            1    1356     123  0.0000
SPC            1    1364     123  0.0000
SPC            1    1373     123  0.0000
SPC            1    1375     123  0.0000
SPC            1    1379     123  0.0000
SPC            1    1384     123  0.0000
SPC            1    1388     123  0.0000
SPC            1    1398     123  0.0000
SPC            1    1399     123  0.0000
SPC            1    1400     123  0.0000
SPC            1    1403     123  0.0000
SPC            1    1404     123  0.0000
SPC            1    1407     123  0.0000
SPC            1    1408     123  0.0000
SPC            1    1431     123  0.0000
SPC            1    1432     123  0.0000
SPC            1    1475     123  0.0000
SPC            1    1545     123  0.0000
SPC            1    1546     123  0.0000
SPC            1    1559     123  0.0000
SPC            1    1560     123  0.0000
SPC            1    1580     123  0.0000
SPC            1    1581     123  0.0000
SPC            1    1600     123  0.0000
SPC            1    1652     123  0.0000
SPC            1    1661     123  0.0000
SPC            1    1666     123  0.0000
SPC            1    1671     123  0.0000
SPC            1    1692     123  0.0000
SPC            1    1693     123  0.0000
SPC            1    1698     123  0.0000
SPC            1    1706     123  0.0000
SPC            1    1708     123  0.0000
SPC            1    1716     123  0.0000
SPC            1    1725     123  0.0000
SPC            1    1727     123  0.0000
SPC            1    1731     123  0.0000
SPC            1    1736     123  0.0000
SPC            1    1740     123  0.0000
SPC            1    1750     123  0.0000
SPC            1    1751     123  0.0000
SPC            1    1752     123  0.0000
SPC            1    1755     123  0.0000
SPC            1    1756     123  0.0000
SPC            1    1759     123  0.0000
SPC            1    1760     123  0.0000
SPC            1    1783     123  0.0000
SPC            1    1784     123  0.0000
SPC            1    1827     123  0.0000
SPC            1    1897     123  0.0000
SPC            1    1898     123  0.0000
SPC            1    1911     123  0.0000
SPC            1    1912     123  0.0000
SPC            1    1932     123  0.0000
SPC            1    1933     123  0.0000
SPC            1    1952     123  0.0000
SPC            1    2004     123  0.0000
SPC            1    2013     123  0.0000
SPC            1    2018     123  0.0000
SPC            1    2023     123  0.0000
SPC            1    2044     123  0.0000
SPC            1    2045     123  0.0000
SPC            1    2050     123  0.0000
SPC            1    2058     123  0.0000
SPC            1    2060     123  0.0000
SPC            1    2068     123  0.0000
SPC            1    2077     123  0.0000
SPC            1    2079     123  0.0000
SPC            1    2083     123  0.0000
SPC            1    2088     123  0.0000
SPC            1    2092     123  0.0000
SPC            1    2102     123  0.0000
SPC            1    2103     123  0.0000
SPC            1    2104     123  0.0000
SPC            1    2107     123  0.0000
SPC            1    2108     123  0.0000
SPC            1    2111     123  0.0000
SPC            1    2112     123  0.0000
$*  Load: Moment(1)
MOMENT         2    2113       01.0000+5  0.0000  0.00001.000000
$*
$* COORDINATE SYSTEM CARDS
$*
CORD2R*                1               00.0000000000E+000.0000000000E+00+
*       0.0000000000E+002.9028417532E-01-9.569404880E-013.5737444149E-07+
*       1.0414553528E-052.7857590669E-06-9.999999999E-01                +
*
CORD2R*                2               00.0000000000E+000.0000000000E+00+
*       0.0000000000E+004.7139748659E-018.8192086359E-01-3.965049719E-07+
*       9.9375188299E-06-5.761317802E-06-9.999999999E-01                +
*
CORD2R*                3               00.0000000000E+000.0000000000E+00+
*       0.0000000000E+009.9518456092E-01-9.801882319E-02-2.440648248E-07+
*       -9.517681946E-07-7.173317992E-06-1.000000000E+00                +
*
CORD2R*                4               00.0000000000E+000.0000000000E+00+
*       0.0000000000E+006.3439058228E-017.7301267073E-012.2220805001E-06+
*       -1.832352349E-051.7912191822E-05-9.999999997E-01                +
*
CORD2R*                5               00.0000000000E+000.0000000000E+00+
*       0.0000000000E+00-8.819228626E-014.7139374670E-016.2824183131E-07+
*       -1.263838498E-06-1.031762170E-06-1.000000000E+00                +
*
CORD2R*                6               00.0000000000E+000.0000000000E+00+
*       0.0000000000E+00-9.569393256E-012.9028800727E-018.3252467575E-08+
*       2.6570905786E-069.0459366837E-06-1.000000000E+00                +
*
CORD2R*                7               00.0000000000E+000.0000000000E+00+
*       0.0000000000E+00-7.730094890E-01-6.343944593E-011.8294798096E-07+
*       8.2357914078E-07-1.291913036E-06-1.000000000E+00                +
*
CORD2R*                8               00.0000000000E+000.0000000000E+00+
*       0.0000000000E+00-9.951846262E-01-9.801816063E-023.2044230279E-07+
*       -3.188992815E-07-3.140887870E-08-1.000000000E+00                +
*
CORD2R*                9               00.0000000000E+000.0000000000E+00+
*       0.0000000000E+009.5694054426E-01-2.902839898E-011.3542005327E-06+
*       7.3426288046E-061.9540377255E-05-9.999999998E-01                +
*
CORD2R*               10               00.0000000000E+000.0000000000E+00+
*       0.0000000000E+00-6.343918371E-017.7301164091E-012.8222557491E-07+
*       3.6807256224E-063.3857806610E-06-1.000000000E+00                +
*
CORD2R*               11               00.0000000000E+000.0000000000E+00+
*       0.0000000000E+00-6.343917191E-01-7.730117377E-01-2.777777935E-07+
*       -6.386550731E-065.6006299514E-06-1.000000000E+00                +
*
CORD2R*               12               00.0000000000E+000.0000000000E+00+
*       0.0000000000E+009.8015016481E-029.9518493585E-017.7767761715E-08+
*       -2.303633171E-063.0502713016E-07-1.000000000E+00                +
*
CORD2R*               13               00.0000000000E+000.0000000000E+00+
*       0.0000000000E+004.7139671611E-01-8.819212754E-01-1.780128189E-06+
*       -2.614733147E-066.2086218524E-07-1.000000000E+00                +
*
CORD2R*               14               00.0000000000E+000.0000000000E+00+
*       0.0000000000E+009.8015674713E-02-9.951848710E-01-2.012243442E-07+
*       -6.096177999E-06-3.982141079E-07-1.000000000E+00                +
*
CORD2R*               15               00.0000000000E+000.0000000000E+00+
*       0.0000000000E+00-8.819230863E-014.7139332820E-01-6.966591008E-09+
*       8.4538889688E-081.4338388656E-07-1.000000000E+00                +
*
CORD2R*               16               00.0000000000E+000.0000000000E+00+
*       0.0000000000E+00-8.819228099E-01-4.713938453E-01-6.288296923E-07+
*       -5.606444042E-061.1822981211E-05-9.999999999E-01                +
*
CORD2R*               17               00.0000000000E+000.0000000000E+00+
*       0.0000000000E+00-9.569403392E-01-2.902846660E-012.7464286895E-07+
*       -1.085774463E-062.6332032084E-06-1.000000000E+00                +
*
CORD2R*               18               00.0000000000E+000.0000000000E+00+
*       0.0000000000E+006.3439408475E-01-7.730097963E-01-4.058083799E-07+
*       -1.086926533E-05-8.395222521E-06-9.999999999E-01                +
*
CORD2R*               19               00.0000000000E+000.0000000000E+00+
*       0.0000000000E+00-2.902841148E-01-9.569405064E-019.9257602774E-08+
*       -7.114188916E-071.1208220335E-07-1.000000000E+00                +
*
CORD2R*               20               00.0000000000E+000.0000000000E+00+
*       0.0000000000E+006.3439037587E-017.7301284013E-013.7991750516E-07+
*       2.6505791338E-06-1.683781071E-06-1.000000000E+00                +
*
CORD2R*               21               00.0000000000E+000.0000000000E+00+
*       0.0000000000E+00-9.569390146E-012.9028903237E-01-1.413981928E-06+
*       4.5632916737E-061.0171965110E-05-9.999999999E-01                +
*
CORD2R*               22               00.0000000000E+000.0000000000E+00+
*       0.0000000000E+007.7301064721E-016.3439304797E-018.0501090404E-09+
*       4.9605000423E-07-5.917495896E-07-1.000000000E+00                +
*
CORD2R*               23               00.0000000000E+000.0000000000E+00+
*       0.0000000000E+00-9.569405420E-012.9028399727E-011.3558068173E-06+
*       -7.344062972E-06-1.953957103E-05-9.999999998E-01                +
*
CORD2R*               24               00.0000000000E+000.0000000000E+00+
*       0.0000000000E+00-9.801567237E-02-9.951848713E-012.0122436976E-07+
*       -1.114009430E-06-9.247928617E-08-1.000000000E+00                +
*
CORD2R*               25               00.0000000000E+000.0000000000E+00+
*       0.0000000000E+002.9028415445E-01-9.569404943E-01-4.145636930E-07+
*       -3.039342414E-06-4.887547893E-07-1.000000000E+00                +
*
CORD2R*               26               00.0000000000E+000.0000000000E+00+
*       0.0000000000E+00-8.819223571E-01-4.713946925E-011.3210468284E-06+
*       1.3643133975E-05-2.832707265E-05-9.999999995E-01                +
*
CORD2R*               27               00.0000000000E+000.0000000000E+00+
*       0.0000000000E+009.9518462736E-019.8018148694E-023.2029923426E-07+
*       3.1875688595E-073.1395017565E-08-1.000000000E+00                +
*
CORD2R*               28               00.0000000000E+000.0000000000E+00+
*       0.0000000000E+008.8192235818E-01-4.713946904E-01-1.321046958E-06+
*       -1.447679833E-069.3988639781E-08-1.000000000E+00                +
*
CORD2R*               29               00.0000000000E+000.0000000000E+00+
*       0.0000000000E+00-4.713991153E-01-8.819199930E-01-7.377952257E-08+
*       -6.256331068E-063.4277581601E-06-1.000000000E+00                +
*
CORD2R*               30               00.0000000000E+000.0000000000E+00+
*       0.0000000000E+00-4.713966408E-018.8192131566E-01-1.768953318E-06+
*       2.6094054205E-06-6.110390558E-07-1.000000000E+00                +
*
CORD2R*               31               00.0000000000E+000.0000000000E+00+
*       0.0000000000E+009.9518442230E-01-9.802023058E-02-3.662798987E-07+
*       -1.354124252E-06-1.001143802E-05-9.999999999E-01                +
*
CORD2R*               32               00.0000000000E+000.0000000000E+00+
*       0.0000000000E+00-9.951844236E-019.8020217326E-02-3.661413305E-07+
*       1.3539895006E-061.0011484947E-05-9.999999999E-01                +
*
CORD2R*               33               00.0000000000E+000.0000000000E+00+
*       0.0000000000E+009.5693932489E-012.9028800953E-01-8.325234428E-08+
*       2.8384538675E-06-9.643803327E-06-9.999999999E-01                +
*
CORD2R*               34               00.0000000000E+000.0000000000E+00+
*       0.0000000000E+002.9028407292E-019.5694051906E-019.9328420059E-08+
*       7.1144664249E-07-1.120165850E-07-1.000000000E+00                +
*
CORD2R*               35               00.0000000000E+000.0000000000E+00+
*       0.0000000000E+007.7300963197E-01-6.343942850E-018.6009383497E-07+
*       1.6953422135E-051.9301978375E-05-9.999999997E-01                +
*
CORD2R*               36               00.0000000000E+000.0000000000E+00+
*       0.0000000000E+00-9.569400862E-01-2.902855000E-013.3960020251E-07+
*       1.7486090838E-06-6.934257240E-06-1.000000000E+00                +
*
CORD2R*               37               00.0000000000E+000.0000000000E+00+
*       0.0000000000E+006.3439272681E-01-7.730109108E-01-2.445296399E-07+
*       -5.663043657E-06-4.331198979E-06-1.000000000E+00                +
*
CORD2R*               38               00.0000000000E+000.0000000000E+00+
*       0.0000000000E+009.9518477274E-01-9.801667263E-022.3515152722E-07+
*       9.3720265224E-077.1165268370E-06-1.000000000E+00                +
*
CORD2R*               39               00.0000000000E+000.0000000000E+00+
*       0.0000000000E+007.7301008833E-01-6.343937290E-01-2.020090387E-07+
*       -4.535187975E-06-5.207707560E-06-1.000000000E+00                +
*
CORD2R*               40               00.0000000000E+000.0000000000E+00+
*       0.0000000000E+009.8014325371E-029.9518500392E-011.4389489312E-06+
*       -1.365336098E-052.7906106756E-06-9.999999999E-01                +
*
CORD2R*               41               00.0000000000E+000.0000000000E+00+
*       0.0000000000E+008.8192308518E-014.7139333028E-016.9663797164E-09+
*       8.7965403215E-08-1.497949494E-07-1.000000000E+00                +
*
CORD2R*               42               00.0000000000E+000.0000000000E+00+
*       0.0000000000E+00-9.801501882E-029.9518493562E-01-7.776809159E-08+
*       -1.480415229E-06-2.239493487E-07-1.000000000E+00                +
*
CORD2R*               43               00.0000000000E+000.0000000000E+00+
*       0.0000000000E+004.7139479918E-018.8192230004E-016.5606624455E-07+
*       -9.810554043E-065.9877274874E-06-9.999999999E-01                +
*
CORD2R*               44               00.0000000000E+000.0000000000E+00+
*       0.0000000000E+009.8016651046E-02-9.951847749E-011.5285891351E-06+
*       2.8791934605E-051.2997585025E-06-9.999999996E-01                +
*
CORD2R*               45               00.0000000000E+000.0000000000E+00+
*       0.0000000000E+008.8192286149E-014.7139374878E-01-6.282420626E-07+
*       5.6070322799E-06-1.182283819E-05-9.999999999E-01                +
*
CORD2R*               46               00.0000000000E+000.0000000000E+00+
*       0.0000000000E+009.8018999810E-02-9.951845435E-01-2.751827115E-07+
*       -1.111646504E-05-8.183829607E-07-9.999999999E-01                +
*
CORD2R*               47               00.0000000000E+000.0000000000E+00+
*       0.0000000000E+004.7139931236E-018.8191988769E-01-1.464290003E-06+
*       1.1433693771E-05-7.771823133E-06-9.999999999E-01                +
*
CORD2R*               48               00.0000000000E+000.0000000000E+00+
*       0.0000000000E+00-9.951847767E-019.8016632311E-02-1.588337950E-07+
*       5.0352590235E-073.4919330486E-06-1.000000000E+00                +
*
CORD2R*               49               00.0000000000E+000.0000000000E+00+
*       0.0000000000E+009.5693950779E-012.9028740661E-012.1332903585E-06+
*       -6.270438066E-062.8019542319E-05-9.999999996E-01                +
*
CORD2R*               50               00.0000000000E+000.0000000000E+00+
*       0.0000000000E+009.5693951133E-01-2.902873949E-01-2.132243715E-06+
*       -4.361121067E-06-7.031257243E-06-1.000000000E+00                +
*
CORD2R*               51               00.0000000000E+000.0000000000E+00+
*       0.0000000000E+00-7.730106487E-016.3439304615E-01-8.050040808E-09+
*       -9.781938972E-08-1.318827046E-07-1.000000000E+00                +
*
CORD2R*               52               00.0000000000E+000.0000000000E+00+
*       0.0000000000E+00-4.713993970E-01-8.819198425E-01-1.466877258E-06+
*       -1.143181120E-057.7737520277E-06-9.999999999E-01                +
*
CORD2R*               53               00.0000000000E+000.0000000000E+00+
*       0.0000000000E+00-9.801432771E-029.9518500369E-01-1.438949407E-06+
*       1.1230541665E-05-3.398317042E-07-9.999999999E-01                +
*
CORD2R*               54               00.0000000000E+000.0000000000E+00+
*       0.0000000000E+006.3439626514E-01-7.730080069E-011.1296000547E-06+
*       1.1388328835E-057.8849289658E-06-9.999999999E-01                +
*
CORD2R*               55               00.0000000000E+000.0000000000E+00+
*       0.0000000000E+00-4.713988311E-01-8.819201449E-016.6171743752E-07+
*       1.1879813710E-05-7.100243452E-06-9.999999999E-01                +
*
CORD2R*               56               00.0000000000E+000.0000000000E+00+
*       0.0000000000E+00-9.951844436E-019.8020014787E-025.0610190748E-07+
*       -1.853438613E-06-1.365447016E-05-9.999999999E-01                +
*
CORD2R*               57               00.0000000000E+000.0000000000E+00+
*       0.0000000000E+00-8.819221552E-01-4.713950701E-01-3.337796062E-07+
*       -4.162545544E-068.4956780362E-06-1.000000000E+00                +
*
CORD2R*               58               00.0000000000E+000.0000000000E+00+
*       0.0000000000E+004.7139924166E-01-8.819199255E-015.1813076025E-07+
*       2.6380774363E-068.2258822111E-07-1.000000000E+00                +
*
CORD2R*               59               00.0000000000E+000.0000000000E+00+
*       0.0000000000E+00-2.902838601E-01-9.569405836E-011.7495032855E-07+
*       2.5685671705E-06-9.619864989E-07-1.000000000E+00                +
*
CORD2R*               60               00.0000000000E+000.0000000000E+00+
*       0.0000000000E+00-6.343947074E-017.7300928531E-012.2198993765E-06+
*       -2.990731553E-05-2.167262882E-05-9.999999993E-01                +
*
CORD2R*               61               00.0000000000E+000.0000000000E+00+
*       0.0000000000E+009.8019335819E-029.9518451043E-01-1.649852950E-06+
*       4.0210744430E-06-2.053886465E-06-1.000000000E+00                +
*
CORD2R*               62               00.0000000000E+000.0000000000E+00+
*       0.0000000000E+007.7301075178E-01-6.343929205E-01-7.684811695E-09+
*       9.8103235410E-081.3165289956E-07-1.000000000E+00                +
*
CORD2R*               63               00.0000000000E+000.0000000000E+00+
*       0.0000000000E+00-2.902845912E-019.5694036184E-01-6.883804485E-08+
*       4.0702641628E-061.1627651713E-06-1.000000000E+00                +
*
CORD2R*               64               00.0000000000E+000.0000000000E+00+
*       0.0000000000E+00-9.569400840E-012.9028550704E-01-3.396008385E-07+
*       -8.292759339E-08-1.443260399E-06-1.000000000E+00                +
*
CORD2R*               65               00.0000000000E+000.0000000000E+00+
*       0.0000000000E+00-4.713967140E-01-8.819212765E-011.7801283264E-06+
*       3.1721233537E-05-1.897381776E-05-9.999999993E-01                +
*
CORD2R*               66               00.0000000000E+000.0000000000E+00+
*       0.0000000000E+00-9.951846262E-019.8018160902E-021.0508723944E-06+
*       -3.864529871E-06-2.851561686E-05-9.999999996E-01                +
*
CORD2R*               67               00.0000000000E+000.0000000000E+00+
*       0.0000000000E+00-2.902841310E-019.5694050144E-013.5691175678E-07+
*       -1.041446284E-05-2.786214540E-06-9.999999999E-01                +
*
CORD2R*               68               00.0000000000E+000.0000000000E+00+
*       0.0000000000E+00-9.569415115E-01-2.902808013E-01-5.186099611E-07+
*       -2.157012245E-068.8974004081E-06-1.000000000E+00                +
*
CORD2R*               69               00.0000000000E+000.0000000000E+00+
*       0.0000000000E+00-6.343904869E-01-7.730127490E-012.2183656990E-06+
*       1.8325882198E-05-1.790931786E-05-9.999999997E-01                +
*
CORD2R*               70               00.0000000000E+000.0000000000E+00+
*       0.0000000000E+009.8015011464E-02-9.951849363E-01-7.768497493E-08+
*       1.4804231383E-062.2386659772E-07-1.000000000E+00                +
*
CORD2R*               71               00.0000000000E+000.0000000000E+00+
*       0.0000000000E+00-9.801500912E-02-9.951849366E-017.7684639132E-08+
*       2.3036642027E-06-3.049466444E-07-1.000000000E+00                +
*
CORD2R*               72               00.0000000000E+000.0000000000E+00+
*       0.0000000000E+00-9.801665839E-029.9518477414E-011.5287060545E-06+
*       -2.879194629E-05-1.299642382E-06-9.999999996E-01                +
*
CORD2R*               73               00.0000000000E+000.0000000000E+00+
*       0.0000000000E+008.8192253645E-01-4.713943569E-015.0551716578E-07+
*       1.6385114556E-061.9930722534E-06-1.000000000E+00                +
*
CORD2R*               74               00.0000000000E+000.0000000000E+00+
*       0.0000000000E+009.5694127777E-01-2.902815717E-012.2185576603E-06+
*       1.1215919297E-052.9331584618E-05-9.999999995E-01                +
*
CORD2R*               75               00.0000000000E+000.0000000000E+00+
*       0.0000000000E+00-9.951847739E-019.8016660778E-022.3501958633E-07+
*       -9.370744832E-07-7.116572487E-06-1.000000000E+00                +
*
CORD2R*               76               00.0000000000E+000.0000000000E+00+
*       0.0000000000E+00-4.713961379E-018.8192158449E-014.0268993394E-07+
*       1.6520969017E-061.3396678952E-06-1.000000000E+00                +
*
CORD2R*               77               00.0000000000E+000.0000000000E+00+
*       0.0000000000E+009.5694093570E-01-2.902826994E-01-3.023436996E-07+
*       -4.072487835E-06-1.238374394E-05-9.999999999E-01                +
*
CORD2R*               78               00.0000000000E+000.0000000000E+00+
*       0.0000000000E+002.9028410867E-019.5694050821E-014.1277260876E-07+
*       -1.184595557E-054.0247698055E-06-9.999999999E-01                +
*
CORD2R*               79               00.0000000000E+000.0000000000E+00+
*       0.0000000000E+00-9.569395106E-01-2.902873972E-012.1322433530E-06+
*       6.2714635015E-06-2.801931688E-05-9.999999996E-01                +
*
CORD2R*               80               00.0000000000E+000.0000000000E+00+
*       0.0000000000E+008.8192130281E-014.7139666487E-018.8385072699E-07+
*       -9.067978028E-061.8839958754E-05-9.999999998E-01                +
*
CORD2R*               81               00.0000000000E+000.0000000000E+00+
*       0.0000000000E+006.3439183531E-017.7301164240E-01-2.822255425E-07+
*       6.3824590122E-06-5.603027421E-06-1.000000000E+00                +
*
CORD2R*               82               00.0000000000E+000.0000000000E+00+
*       0.0000000000E+009.5693901393E-012.9028903462E-011.4139823363E-06+
*       -2.627082626E-061.3531135267E-05-9.999999999E-01                +
*
CORD2R*               83               00.0000000000E+000.0000000000E+00+
*       0.0000000000E+00-4.713993144E-018.8191988658E-011.4642897735E-06+
*       -1.162528616E-05-4.553545296E-06-9.999999999E-01                +
*
CORD2R*               84               00.0000000000E+000.0000000000E+00+
*       0.0000000000E+009.9518462492E-01-9.801817340E-021.0513193885E-06+
*       3.8649657606E-062.8515478463E-05-9.999999996E-01                +
*
CORD2R*               85               00.0000000000E+000.0000000000E+00+
*       0.0000000000E+006.3439188612E-017.7301160070E-019.7058829299E-07+
*       -8.140626439E-067.9364082611E-06-9.999999999E-01                +
*
CORD2R*               86               00.0000000000E+000.0000000000E+00+
*       0.0000000000E+00-6.343905841E-017.7301266923E-01-2.222080508E-06+
*       1.0649550268E-055.8652258723E-06-9.999999999E-01                +
*
CORD2R*               87               00.0000000000E+000.0000000000E+00+
*       0.0000000000E+00-7.730094454E-01-6.343945124E-011.0753373863E-07+
*       1.5390395063E-06-2.044825087E-06-1.000000000E+00                +
*
CORD2R*               88               00.0000000000E+000.0000000000E+00+
*       0.0000000000E+00-6.343927627E-017.7301088131E-015.7885142915E-07+
*       -9.224289538E-06-6.821341358E-06-9.999999999E-01                +
*
CORD2R*               89               00.0000000000E+000.0000000000E+00+
*       0.0000000000E+008.8192240924E-014.7139459487E-011.3188775079E-06+
*       -1.364522293E-052.8326386291E-05-9.999999995E-01                +
*
CORD2R*               90               00.0000000000E+000.0000000000E+00+
*       0.0000000000E+008.8192170782E-014.7139590714E-01-4.055952391E-07+
*       4.8702736907E-06-9.972074977E-06-9.999999999E-01                +
*
CORD2R*               91               00.0000000000E+000.0000000000E+00+
*       0.0000000000E+009.9518444226E-01-9.802002801E-025.0630099074E-07+
*       1.8536362528E-061.3654443862E-05-9.999999999E-01                +
*
CORD2R*               92               00.0000000000E+000.0000000000E+00+
*       0.0000000000E+009.5693901724E-01-2.902890237E-01-1.412946412E-06+
*       -4.562353301E-06-1.017243930E-05-9.999999999E-01                +
*
CORD2R*               93               00.0000000000E+000.0000000000E+00+
*       0.0000000000E+00-7.730095285E-016.3439441115E-018.6012719324E-07+
*       -1.695345103E-05-1.930195440E-05-9.999999997E-01                +
*
CORD2R*               94               00.0000000000E+000.0000000000E+00+
*       0.0000000000E+009.5694008334E-012.9028550929E-013.3960046783E-07+
*       -1.748605602E-066.9342464351E-06-1.000000000E+00                +
*
CORD2R*               95               00.0000000000E+000.0000000000E+00+
*       0.0000000000E+00-9.801431880E-02-9.951850046E-011.4383723038E-06+
*       1.3653564867E-05-2.790051247E-06-9.999999999E-01                +
*
CORD2R*               96               00.0000000000E+000.0000000000E+00+
*       0.0000000000E+006.3439179732E-01-7.730116736E-01-9.690127379E-07+
*       -4.620357668E-06-2.538259556E-06-1.000000000E+00                +
*
CORD2R*               97               00.0000000000E+000.0000000000E+00+
*       0.0000000000E+009.5694151218E-01-2.902807990E-015.1861021186E-07+
*       4.4603668464E-07-3.161738313E-07-1.000000000E+00                +
*
CORD2R*               98               00.0000000000E+000.0000000000E+00+
*       0.0000000000E+006.3439460169E-01-7.730093721E-012.2084568077E-06+
*       2.9901890194E-052.1682972442E-05-9.999999993E-01                +
*
CORD2R*               99               00.0000000000E+000.0000000000E+00+
*       0.0000000000E+00-7.730104367E-016.3439330451E-013.6740480500E-07+
*       -7.511855619E-06-8.574078492E-06-9.999999999E-01                +
*
CORD2R*              100               00.0000000000E+000.0000000000E+00+
*       0.0000000000E+00-8.819212484E-01-4.713967667E-018.8523298867E-07+
*       9.0666521441E-06-1.884040535E-05-9.999999998E-01                +
*
CORD2R*              101               00.0000000000E+000.0000000000E+00+
*       0.0000000000E+004.7139663875E-018.8192131677E-011.7689534560E-06+
*       -3.172827326E-051.8964905943E-05-9.999999993E-01                +
*
CORD2R*              102               00.0000000000E+000.0000000000E+00+
*       0.0000000000E+00-9.569390166E-01-2.902890260E-011.4129468200E-06+
*       2.6280959742E-06-1.353090901E-05-9.999999999E-01                +
*
CORD2R*              103               00.0000000000E+000.0000000000E+00+
*       0.0000000000E+007.7301053987E-01-6.343931788E-013.6750867151E-07+
*       7.5119396053E-068.5740200248E-06-9.999999999E-01                +
*
CORD2R*              104               00.0000000000E+000.0000000000E+00+
*       0.0000000000E+00-6.343917955E-01-7.730116751E-019.6901232513E-07+
*       8.1416332203E-06-7.935194047E-06-9.999999999E-01                +
*
CORD2R*              105               00.0000000000E+000.0000000000E+00+
*       0.0000000000E+006.3439048872E-01-7.730127475E-01-2.218365708E-06+
*       -1.064778542E-05-5.868581218E-06-9.999999999E-01                +
*
CORD2R*              106               00.0000000000E+000.0000000000E+00+
*       0.0000000000E+009.9518457334E-01-9.801869708E-02-2.533129287E-07+
*       -9.609708527E-07-7.172411594E-06-1.000000000E+00                +
*
CORD2R*              107               00.0000000000E+000.0000000000E+00+
*       0.0000000000E+00-9.569390539E-012.9028890278E-01-1.425213948E-06+
*       4.5740385984E-061.0168705013E-05-9.999999999E-01                +
*
CORD2R*              108               00.0000000000E+000.0000000000E+00+
*       0.0000000000E+00-8.819220913E-01-4.713951897E-01-3.435772491E-07+
*       -4.153905916E-068.5002959929E-06-1.000000000E+00                +
*
CORD2R*              109               00.0000000000E+000.0000000000E+00+
*       0.0000000000E+009.5693905324E-012.9028890504E-011.4252143570E-06+
*       -2.616332490E-061.3534396338E-05-9.999999999E-01                +
*
CORD2R*              110               00.0000000000E+000.0000000000E+00+
*       0.0000000000E+004.7139673906E-01-8.819212632E-01-1.795269938E-06+
*       -2.621870893E-066.3421596925E-07-1.000000000E+00                +
*
CORD2R*              111               00.0000000000E+000.0000000000E+00+
*       0.0000000000E+009.5693905596E-01-2.902888961E-01-1.424188056E-06+
*       -4.573109457E-06-1.016917640E-05-9.999999999E-01                +
*
CORD2R*              112               00.0000000000E+000.0000000000E+00+
*       0.0000000000E+00-9.569390553E-01-2.902888983E-011.4241884662E-06+
*       2.6173366540E-06-1.353417287E-05-9.999999999E-01                +
*
CORD2R*              113               00.0000000000E+000.0000000000E+00+
*       0.0000000000E+004.7139734704E-018.8192093818E-01-4.099851323E-07+
*       9.9311651732E-06-5.773204635E-06-9.999999999E-01                +
*
CORD2R*              114               00.0000000000E+000.0000000000E+00+
*       0.0000000000E+006.3439071180E-017.7301256443E-012.2497147294E-06+
*       -1.830598989E-051.7933556736E-05-9.999999997E-01                +
*
CORD2R*              115               00.0000000000E+000.0000000000E+00+
*       0.0000000000E+00-8.819227765E-014.7139390781E-016.4712903291E-07+
*       -1.280495795E-06-1.022858730E-06-1.000000000E+00                +
*
CORD2R*              116               00.0000000000E+000.0000000000E+00+
*       0.0000000000E+00-9.569393797E-012.9028782885E-017.7253119300E-08+
*       2.6628299089E-069.0441956556E-06-1.000000000E+00                +
*
CORD2R*              117               00.0000000000E+000.0000000000E+00+
*       0.0000000000E+00-7.730096251E-01-6.343942934E-011.9791894925E-07+
*       8.1200618702E-07-1.301410741E-06-1.000000000E+00                +
*
CORD2R*              118               00.0000000000E+000.0000000000E+00+
*       0.0000000000E+00-9.951846480E-01-9.801793930E-023.3784026292E-07+
*       -3.362134641E-07-3.311419307E-08-1.000000000E+00                +
*
CORD2R*              119               00.0000000000E+000.0000000000E+00+
*       0.0000000000E+004.7139675952E-01-8.819212522E-01-1.810411821E-06+
*       -2.629008705E-066.4756987697E-07-1.000000000E+00                +
*
CORD2R*              120               00.0000000000E+000.0000000000E+00+
*       0.0000000000E+009.8015848182E-02-9.951848539E-01-2.064365723E-07+
*       -6.096688775E-06-3.930280365E-07-1.000000000E+00                +
*
CORD2R*              121               00.0000000000E+000.0000000000E+00+
*       0.0000000000E+00-8.819229968E-014.7139349566E-01-6.007808771E-09+
*       8.3693345383E-081.4383583529E-07-1.000000000E+00                +
*
CORD2R*              122               00.0000000000E+000.0000000000E+00+
*       0.0000000000E+00-8.819227288E-01-4.713939971E-01-6.477303019E-07+
*       -5.589777148E-061.1831889782E-05-9.999999999E-01                +
*
CORD2R*              123               00.0000000000E+000.0000000000E+00+
*       0.0000000000E+00-2.902842683E-01-9.569404598E-011.1637700559E-07+
*       -7.163883502E-079.5700063220E-08-1.000000000E+00                +
*
CORD2R*              124               00.0000000000E+000.0000000000E+00+
*       0.0000000000E+006.3439053753E-017.7301270746E-013.9585527984E-07+
*       2.6606894922E-06-1.671461471E-06-1.000000000E+00                +
*
CORD2R*              125               00.0000000000E+000.0000000000E+00+
*       0.0000000000E+00-9.801584584E-02-9.951848542E-012.0643660155E-07+
*       -1.114520292E-06-9.766622961E-08-1.000000000E+00                +
*
CORD2R*              126               00.0000000000E+000.0000000000E+00+
*       0.0000000000E+009.9518464913E-019.8017927621E-023.3769700410E-07+
*       3.3607087921E-073.3100313080E-08-1.000000000E+00                +
*
CORD2R*              127               00.0000000000E+000.0000000000E+00+
*       0.0000000000E+00-4.713989672E-01-8.819200722E-01-8.421180794E-08+
*       -6.251413863E-063.4369575451E-06-1.000000000E+00                +
*
CORD2R*              128               00.0000000000E+000.0000000000E+00+
*       0.0000000000E+00-4.713966905E-018.8192128910E-01-1.799413574E-06+
*       2.6237642302E-06-6.379025047E-07-1.000000000E+00                +
*
CORD2R*              129               00.0000000000E+000.0000000000E+00+
*       0.0000000000E+009.9518443667E-01-9.802008475E-02-3.774870397E-07+
*       -1.365275952E-06-1.001033964E-05-9.999999999E-01                +
*
CORD2R*              130               00.0000000000E+000.0000000000E+00+
*       0.0000000000E+00-9.951844379E-019.8020072006E-02-3.773376542E-07+
*       1.3651304404E-061.0010387626E-05-9.999999999E-01                +
*
CORD2R*              131               00.0000000000E+000.0000000000E+00+
*       0.0000000000E+009.5693937902E-012.9028783110E-01-7.725299215E-08+
*       2.8441930900E-06-9.642062331E-06-9.999999999E-01                +
*
CORD2R*              132               00.0000000000E+000.0000000000E+00+
*       0.0000000000E+002.9028422659E-019.5694047244E-011.1634493045E-07+
*       7.1638623233E-07-9.573290667E-08-1.000000000E+00                +
*
CORD2R*              133               00.0000000000E+000.0000000000E+00+
*       0.0000000000E+007.7301020066E-01-6.343935921E-01-2.143881397E-07+
*       -4.544756200E-06-5.199855112E-06-1.000000000E+00                +
*
CORD2R*              134               00.0000000000E+000.0000000000E+00+
*       0.0000000000E+009.8014446759E-029.9518499196E-011.4628217569E-06+
*       -1.365102093E-052.8143702362E-06-9.999999999E-01                +
*
CORD2R*              135               00.0000000000E+000.0000000000E+00+
*       0.0000000000E+008.8192299567E-014.7139349773E-016.0075913414E-09+
*       8.7119854716E-08-1.502469004E-07-1.000000000E+00                +
*
CORD2R*              136               00.0000000000E+000.0000000000E+00+
*       0.0000000000E+004.7139493850E-018.8192222557E-016.7976276512E-07+
*       -9.799382771E-066.0086275752E-06-9.999999999E-01                +
*
CORD2R*              137               00.0000000000E+000.0000000000E+00+
*       0.0000000000E+008.8192277537E-014.7139390989E-01-6.471292669E-07+
*       5.5903773291E-06-1.183174038E-05-9.999999999E-01                +
*
CORD2R*              138               00.0000000000E+000.0000000000E+00+
*       0.0000000000E+004.7139917506E-018.8191996108E-01-1.487672602E-06+
*       1.1422672240E-05-7.792442825E-06-9.999999999E-01                +
*
CORD2R*              139               00.0000000000E+000.0000000000E+00+
*       0.0000000000E+00-9.951847754E-019.8016645448E-02-1.450231085E-07+
*       4.8978176368E-073.4932867211E-06-1.000000000E+00                +
*
CORD2R*              140               00.0000000000E+000.0000000000E+00+
*       0.0000000000E+009.5693954721E-012.9028727666E-012.1600488105E-06+
*       -6.244828125E-062.8027311087E-05-9.999999996E-01                +
*
CORD2R*              141               00.0000000000E+000.0000000000E+00+
*       0.0000000000E+009.5693954962E-01-2.902872687E-01-2.159017661E-06+
*       -4.386741105E-06-7.023485411E-06-1.000000000E+00                +
*
CORD2R*              142               00.0000000000E+000.0000000000E+00+
*       0.0000000000E+00-4.713992526E-01-8.819199196E-01-1.490272193E-06+
*       -1.142078390E-057.7943825012E-06-9.999999999E-01                +
*
CORD2R*              143               00.0000000000E+000.0000000000E+00+
*       0.0000000000E+00-9.801444910E-029.9518499173E-01-1.462822237E-06+
*       1.1232881412E-05-3.635882337E-07-9.999999999E-01                +
*
CORD2R*              144               00.0000000000E+000.0000000000E+00+
*       0.0000000000E+006.3439609367E-01-7.730081477E-011.1513717490E-06+
*       1.1402142658E-057.8680969032E-06-9.999999999E-01                +
*
CORD2R*              145               00.0000000000E+000.0000000000E+00+
*       0.0000000000E+00-2.902840338E-01-9.569405309E-011.9538320571E-07+
*       2.5626356902E-06-9.815400234E-07-1.000000000E+00                +
*
CORD2R*              146               00.0000000000E+000.0000000000E+00+
*       0.0000000000E+009.8019189704E-029.9518452482E-01-1.678487286E-06+
*       4.0182677868E-06-2.082382299E-06-1.000000000E+00                +
*
CORD2R*              147               00.0000000000E+000.0000000000E+00+
*       0.0000000000E+007.7301061657E-016.3439308530E-01-1.002980632E-08+
*       4.8207406623E-07-6.032193389E-07-1.000000000E+00                +
*
CORD2R*              148               00.0000000000E+000.0000000000E+00+
*       0.0000000000E+00-9.569414514E-01-2.902809994E-01-5.316886168E-07+
*       -2.144498548E-068.9011963426E-06-1.000000000E+00                +
*
CORD2R*              149               00.0000000000E+000.0000000000E+00+
*       0.0000000000E+00-6.343906266E-01-7.730126343E-012.2460670487E-06+
*       1.8308305796E-05-1.793073492E-05-9.999999997E-01                +
*
CORD2R*              150               00.0000000000E+000.0000000000E+00+
*       0.0000000000E+008.8192245505E-01-4.713945092E-015.1593343429E-07+
*       1.6476981825E-061.9881618766E-06-1.000000000E+00                +
*
CORD2R*              151               00.0000000000E+000.0000000000E+00+
*       0.0000000000E+009.5694123182E-01-2.902817232E-012.2464571924E-06+
*       1.1242622256E-052.9323484457E-05-9.999999995E-01                +
*
CORD2R*              152               00.0000000000E+000.0000000000E+00+
*       0.0000000000E+00-9.951847657E-019.8016743604E-022.5735959263E-07+
*       -9.593075114E-07-7.114382735E-06-1.000000000E+00                +
*
CORD2R*              153               00.0000000000E+000.0000000000E+00+
*       0.0000000000E+00-9.569395489E-01-2.902872709E-012.1590172951E-06+
*       6.2458388437E-06-2.802709011E-05-9.999999996E-01                +
*
CORD2R*              154               00.0000000000E+000.0000000000E+00+
*       0.0000000000E+009.5693908829E-012.9028878949E-011.4364463967E-06+
*       -2.605582529E-061.3537657354E-05-9.999999999E-01                +
*
CORD2R*              155               00.0000000000E+000.0000000000E+00+
*       0.0000000000E+00-4.713991771E-018.8191995997E-011.4876723703E-06+
*       -1.163630961E-05-4.532922016E-06-9.999999999E-01                +
*
CORD2R*              156               00.0000000000E+000.0000000000E+00+
*       0.0000000000E+00-6.343907136E-017.7301256294E-01-2.249714737E-06+
*       1.0667079893E-055.8438658125E-06-9.999999999E-01                +
*
CORD2R*              157               00.0000000000E+000.0000000000E+00+
*       0.0000000000E+00-7.730095517E-01-6.343943828E-011.1359489099E-07+
*       1.5343538467E-06-2.048670520E-06-1.000000000E+00                +
*
CORD2R*              158               00.0000000000E+000.0000000000E+00+
*       0.0000000000E+008.8192161443E-014.7139608187E-01-4.147530357E-07+
*       4.8621991693E-06-9.976390890E-06-9.999999999E-01                +
*
CORD2R*              159               00.0000000000E+000.0000000000E+00+
*       0.0000000000E+00-9.801444202E-02-9.951849924E-011.4622453080E-06+
*       1.3651224801E-05-2.813811011E-06-9.999999999E-01                +
*
CORD2R*              160               00.0000000000E+000.0000000000E+00+
*       0.0000000000E+009.5694145209E-01-2.902809971E-015.3168887052E-07+
*       4.5855216141E-07-3.199703055E-07-1.000000000E+00                +
*
CORD2R*              161               00.0000000000E+000.0000000000E+00+
*       0.0000000000E+00-9.569390898E-01-2.902887845E-011.4354301314E-06+
*       2.6065775048E-06-1.353743667E-05-9.999999999E-01                +
*
CORD2R*              162               00.0000000000E+000.0000000000E+00+
*       0.0000000000E+006.3439062844E-01-7.730126329E-01-2.246067058E-06+
*       -1.066535753E-05-5.847169393E-06-9.999999999E-01                +
*
CORD2R*              163               00.0000000000E+000.0000000000E+00+
*       0.0000000000E+009.9518459436E-01-9.801848375E-02-2.718091460E-07+
*       -9.793764603E-07-7.170598773E-06-1.000000000E+00                +
*
CORD2R*              164               00.0000000000E+000.0000000000E+00+
*       0.0000000000E+006.3439060591E-017.7301265134E-014.0382408039E-07+
*       2.6657446492E-06-1.665301701E-06-1.000000000E+00                +
*
CORD2R*              165               00.0000000000E+000.0000000000E+00+
*       0.0000000000E+00-9.569391204E-012.9028868357E-01-1.447678040E-06+
*       4.5955329414E-061.0162184675E-05-9.999999999E-01                +
*
CORD2R*              166               00.0000000000E+000.0000000000E+00+
*       0.0000000000E+002.9028431148E-01-9.569404467E-01-4.396636472E-07+
*       -3.046628389E-06-4.647361063E-07-1.000000000E+00                +
*
CORD2R*              167               00.0000000000E+000.0000000000E+00+
*       0.0000000000E+00-4.713967115E-018.8192127787E-01-1.814643887E-06+
*       2.6309437271E-06-6.513343999E-07-1.000000000E+00                +
*
CORD2R*              168               00.0000000000E+000.0000000000E+00+
*       0.0000000000E+00-9.951844587E-019.8019860605E-025.2326803979E-07+
*       -1.870519958E-06-1.365278775E-05-9.999999999E-01                +
*
CORD2R*              169               00.0000000000E+000.0000000000E+00+
*       0.0000000000E+00-8.819219832E-01-4.713953919E-01-3.631724623E-07+
*       -4.136626378E-068.5095320620E-06-1.000000000E+00                +
*
CORD2R*              170               00.0000000000E+000.0000000000E+00+
*       0.0000000000E+004.7139910376E-01-8.819199992E-015.4058730304E-07+
*       2.6486636321E-068.0278297344E-07-1.000000000E+00                +
*
CORD2R*              171               00.0000000000E+000.0000000000E+00+
*       0.0000000000E+00-6.343945820E-017.7300938827E-012.2633849135E-06+
*       -2.993490632E-05-2.163900947E-05-9.999999993E-01                +
*
CORD2R*              172               00.0000000000E+000.0000000000E+00+
*       0.0000000000E+008.8192242063E-01-4.713945736E-015.2114156053E-07+
*       1.6522915088E-061.9857067072E-06-1.000000000E+00                +
*
CORD2R*              173               00.0000000000E+000.0000000000E+00+
*       0.0000000000E+00-9.951847623E-019.8016778632E-022.6852960096E-07+
*       -9.704239848E-07-7.113287862E-06-1.000000000E+00                +
*
CORD2R*              174               00.0000000000E+000.0000000000E+00+
*       0.0000000000E+00-4.713960847E-018.8192161291E-013.9717690552E-07+
*       1.6546957812E-061.3348057253E-06-1.000000000E+00                +
*
CORD2R*              175               00.0000000000E+000.0000000000E+00+
*       0.0000000000E+002.9028426610E-019.5694046045E-014.3797910437E-07+
*       -1.183863793E-054.0488928903E-06-9.999999999E-01                +
*
CORD2R*              176               00.0000000000E+000.0000000000E+00+
*       0.0000000000E+009.9518445752E-01-9.801987307E-025.2348188438E-07+
*       1.8707322775E-061.3652760001E-05-9.999999999E-01                +
*
CORD2R*              177               00.0000000000E+000.0000000000E+00+
*       0.0000000000E+009.5693912147E-01-2.902886801E-01-1.446671398E-06+
*       -4.594622258E-06-1.016265046E-05-9.999999999E-01                +
*
ENDDATA e4558d82
