$*$$$$$$$$$$$$$$$$$$$$$$$$$$$$$$$$$$$$$$$$$$$$$$$$$$$$$$$$$$$$$$$$$
$*
$*                    Simcenter v1961.0.0.2202 Translator
$*                    for Simcenter Nastran version 2021.1
$*
$*             FEM FILE: C:\Users\s0166875\Documents\GitHub\DigitalDriveShaft\src\DigitalDriveShaft\examples\reference_shaft_fem1.fem
$*             SIM FILE: C:\Users\s0166875\Documents\GitHub\DigitalDriveShaft\src\DigitalDriveShaft\examples\reference_shaft_sim1.sim
$*        ANALYSIS TYPE: Structural
$*        SOLUTION NAME: Solution 1
$*        SOLUTION TYPE: SOL 101 Linear Statics - Global Constraints
$*
$*    SOLVER INPUT FILE: reference_shaft_sim1-solution_1.dat
$*        CREATION DATE: 25-Apr-2022
$*        CREATION TIME: 12:36:58
$*             HOSTNAME: MLKP531
$*      NASTRAN LICENSE: Desktop Bundle
$*
$*                UNITS: mm (milli-newton)
$*                      ... LENGTH : mm
$*                      ... TIME   : sec
$*                      ... MASS   : kilogram (kg)
$*                      ... TEMPERATURE : deg Celsius
$*                      ... FORCE  : milli-newton
$*                      ... THERMAL ENERGY : mN-mm (micro-joule)
$*
$* IMPORTANT NOTE:
$*     This banner was generated by Simcenter and altering this 
$*     information may compromise the pre and post processing of results
$*
$*$$$$$$$$$$$$$$$$$$$$$$$$$$$$$$$$$$$$$$$$$$$$$$$$$$$$$$$$$$$$$$$$$
$*
$*$$$$$$$$$$$$$$$$$$$$$$$$$$$$$$$$$$$
$*
$* FILE MANAGEMENT
$*
$*$$$$$$$$$$$$$$$$$$$$$$$$$$$$$$$$$$$
$*
$*
$*$$$$$$$$$$$$$$$$$$$$$$$$$$$$$$$$$$$
$*
$* EXECUTIVE CONTROL
$*
$*$$$$$$$$$$$$$$$$$$$$$$$$$$$$$$$$$$$
$*
ID,NASTRAN,reference_shaft_sim1-solution_1
SOL 101
CEND
$*
$*$$$$$$$$$$$$$$$$$$$$$$$$$$$$$$$$$$$
$*
$* CASE CONTROL
$*
$*$$$$$$$$$$$$$$$$$$$$$$$$$$$$$$$$$$$
$*
ECHO = NONE
SPC = 1
OUTPUT
DISPLACEMENT(PLOT,REAL) = ALL
SPCFORCES(PLOT,REAL) = ALL
STRESS(PLOT,REAL,VONMISES,CENTER) = ALL
$*  Step: Subcase - Static Loads 1
SUBCASE 1
  LABEL = Subcase - Static Loads 1
  LOAD = 2
$*
$*$$$$$$$$$$$$$$$$$$$$$$$$$$$$$$$$$$$
$*
$* BULK DATA
$*
$*$$$$$$$$$$$$$$$$$$$$$$$$$$$$$$$$$$$
$*
BEGIN BULK
$*
$* PARAM CARDS
$*
PARAM      K6ROT100.0000
PARAM     OIBULK     YES
PARAM    OMACHPR     YES
PARAM       POST      -2
PARAM    POSTEXT     YES
PARAM    UNITSYS   MN-MM
$*
$* GRID CARDS
$*
GRID*                353               07.8035553533E-01-3.869593440E+00+
*       9.0000006878E+00               0
GRID*                354               07.8036592320E-01-3.869590984E+00+
*       8.0000002938E+00               0
GRID*                355               01.5307317866E+00-3.641970087E+00+
*       7.9999996864E+00               0
GRID*                356               01.5307327991E+00-3.641969734E+00+
*       8.9999998408E+00               0
GRID*                357               02.2222788652E+003.3794251706E+00+
*       9.9999999186E+00               0
GRID*                358               02.2222844588E+003.3794214817E+00+
*       9.0000006493E+00               0
GRID*                359               01.5307357884E+003.7490649214E+00+
*       9.0000005085E+00               0
GRID*                360               01.5307325692E+003.7490661059E+00+
*       1.0000000086E+01               0
GRID*                361               03.9231424319E+00-7.267953034E-01+
*       2.9999983361E+00               0
GRID*                362               03.9231409487E+00-7.268037918E-01+
*       1.9999995030E+00               0
GRID*                363               04.0000000000E+005.3547225557E-02+
*       2.0000001929E+00               0
GRID*                364               04.0000000000E+005.3547345748E-02+
*       3.0000005757E+00               0
GRID*                365               02.8284368940E+002.8819629232E+00+
*       3.0000003207E+00               0
GRID*                366               02.8284198962E+002.8819809896E+00+
*       1.9999988554E+00               0
GRID*                367               02.2222672405E+003.3794327739E+00+
*       1.9999985728E+00               0
GRID*                368               02.2222573599E+003.3794392681E+00+
*       2.9999976396E+00               0
GRID*                369               0-3.325875437E+002.2758332574E+00+
*       2.0000001829E+00               0
GRID*                370               0-3.325876567E+002.2758317089E+00+
*       9.9999993722E-01               0
GRID*                371               0-3.695518491E+001.5842753420E+00+
*       9.9999939075E-01               0
GRID*                372               0-3.695523241E+001.5842643754E+00+
*       1.9999985572E+00               0
GRID*                373               03.9231399158E+00-7.268097981E-01+
*       1.0000000663E+00               0
GRID*                374               04.0000000000E+005.3547629826E-02+
*       9.9999991314E-01               0
GRID*                375               0-3.695515523E+001.5842821510E+00+
*       -1.195396650E-07               0
GRID*                376               0-3.923139557E+008.3390831835E-01+
*       1.9143950479E-07               0
GRID*                377               0-3.923139926E+008.3390604908E-01+
*       1.0000000676E+00               0
GRID*                378               0-3.325876124E+00-2.168735873E+00+
*       5.9999991354E+00               0
GRID*                379               0-3.325876897E+00-2.168734786E+00+
*       4.9999995543E+00               0
GRID*                380               0-2.828443472E+00-2.774859669E+00+
*       5.0000021660E+00               0
GRID*                381               0-2.828439428E+00-2.774863919E+00+
*       6.0000019596E+00               0
GRID*                382               0-4.000000000E+005.3547620405E-02+
*       9.0000000869E+00               0
GRID*                383               0-4.000000000E+005.3547216136E-02+
*       7.9999998071E+00               0
GRID*                384               0-3.923140947E+00-7.268038011E-01+
*       8.0000004970E+00               0
GRID*                385               0-3.923139914E+00-7.268098073E-01+
*       8.9999999337E+00               0
GRID*                386               03.6955037691E+00-1.477213130E+00+
*       5.0000018046E+00               0
GRID*                387               03.6955114226E+00-1.477195443E+00+
*       4.0000002495E+00               0
GRID*                388               03.9231439616E+00-7.267866838E-01+
*       3.9999975920E+00               0
GRID*                389               03.9231447447E+00-7.267823505E-01+
*       4.9999978997E+00               0
GRID*                390               03.9231397250E+00-7.268111723E-01+
*       1.0000000023E+01               0
GRID*                391               03.9231383452E+00-7.268189764E-01+
*       9.0000005873E+00               0
GRID*                392               04.0000000000E+005.3548634768E-02+
*       9.0000000870E+00               0
GRID*                393               04.0000000000E+005.3548354662E-02+
*       1.0000000119E+01               0
GRID*                394               0-2.222301274E+003.3794104390E+00+
*       2.9999980765E+00               0
GRID*                395               0-2.222295229E+003.3794144093E+00+
*       1.9999983702E+00               0
GRID*                396               0-2.828430537E+002.8819695740E+00+
*       1.9999998060E+00               0
GRID*                397               0-2.828434595E+002.8819652349E+00+
*       2.9999990209E+00               0
GRID*                398               0-2.828419902E+00-2.774884789E+00+
*       1.9999988572E+00               0
GRID*                399               0-2.828421865E+00-2.774882695E+00+
*       9.9999937764E-01               0
GRID*                400               0-2.222276053E+00-3.272330658E+00+
*       9.9999982698E-01               0
GRID*                401               0-2.222267194E+00-3.272336483E+00+
*       1.9999985765E+00               0
GRID*                402               07.8036492901E-013.9766873466E+00+
*       7.9999999081E+00               0
GRID*                403               07.8036840542E-013.9766864999E+00+
*       7.0000004420E+00               0
GRID*                404               02.8094974045E-054.0535455826E+00+
*       7.0000021736E+00               0
GRID*                405               01.7327292521E-054.0535455826E+00+
*       8.0000016343E+00               0
GRID*                406               01.5307280162E+00-3.641971437E+00+
*       6.0000005039E+00               0
GRID*                407               01.5307253458E+00-3.641972428E+00+
*       5.0000011801E+00               0
GRID*                408               02.2222612173E+00-3.272340429E+00+
*       5.0000012074E+00               0
GRID*                409               02.2222526846E+00-3.272346035E+00+
*       6.0000022160E+00               0
GRID*                410               07.8036260225E-013.9766879200E+00+
*       8.9999998162E+00               0
GRID*                411               05.0408714641E-064.0535455826E+00+
*       9.0000004749E+00               0
GRID*                412               07.8038070182E-013.9766836458E+00+
*       4.0000015528E+00               0
GRID*                413               07.8037901057E-013.9766840670E+00+
*       3.0000007758E+00               0
GRID*                414               0-2.810439108E-054.0535455826E+00+
*       2.9999978264E+00               0
GRID*                415               0-2.709201366E-054.0535455826E+00+
*       3.9999981802E+00               0
GRID*                416               06.0009394626E-07-3.946449395E+00+
*       9.9999998064E+00               0
GRID*                417               0-5.041057683E-06-3.946449387E+00+
*       9.0000004757E+00               0
GRID*                418               07.8036256256E-01-3.869591801E+00+
*       1.0000000031E+01               0
GRID*                419               0-3.325878201E+002.2758295093E+00+
*       -1.974683171E-07               0
GRID*                420               0-3.695506945E+00-1.477205712E+00+
*       2.9999978497E+00               0
GRID*                421               0-3.695511226E+00-1.477195797E+00+
*       1.9999990806E+00               0
GRID*                422               0-3.325878281E+00-2.168732904E+00+
*       2.0000003684E+00               0
GRID*                423               0-3.325877913E+00-2.168733403E+00+
*       3.0000004417E+00               0
GRID*                424               0-3.923142430E+00-7.267953126E-01+
*       7.0000016639E+00               0
GRID*                425               0-3.923143960E+00-7.267866930E-01+
*       6.0000024080E+00               0
GRID*                426               0-3.695511419E+00-1.477195452E+00+
*       5.9999997505E+00               0
GRID*                427               0-3.695523287E+00-1.477167990E+00+
*       7.0000015916E+00               0
GRID*                428               02.2222951692E+00-3.272318099E+00+
*       1.9999983674E+00               0
GRID*                429               02.2222844139E+00-3.272325172E+00+
*       9.9999934707E-01               0
GRID*                430               02.8284277997E+00-2.774876326E+00+
*       1.0000001358E+00               0
GRID*                431               02.8284305511E+00-2.774873365E+00+
*       1.9999998045E+00               0
GRID*                432               0-1.530721505E+00-3.641973893E+00+
*       6.9999991966E+00               0
GRID*                433               0-1.530722640E+00-3.641973455E+00+
*       5.9999986746E+00               0
GRID*                434               0-7.803728207E-01-3.869589258E+00+
*       6.0000012422E+00               0
GRID*                435               0-7.803683873E-01-3.869590312E+00+
*       7.0000004417E+00               0
GRID*                436               02.8284267744E+002.8819736142E+00+
*       9.9999998087E+00               0
GRID*                437               02.8284277814E+002.8819725395E+00+
*       8.9999998591E+00               0
GRID*                438               0-3.695511223E+001.5842920734E+00+
*       8.0000009202E+00               0
GRID*                439               0-3.695506940E+001.5843019878E+00+
*       7.0000021512E+00               0
GRID*                440               0-3.923139049E+008.3391132857E-01+
*       7.0000007850E+00               0
GRID*                441               0-3.923136767E+008.3392435360E-01+
*       8.0000013920E+00               0
GRID*                442               03.3258769998E+002.2758310612E+00+
*       4.9999995546E+00               0
GRID*                443               03.3258775463E+002.2758303152E+00+
*       4.0000000455E+00               0
GRID*                444               02.8284439830E+002.8819553601E+00+
*       4.0000014806E+00               0
GRID*                445               02.8284434665E+002.8819558697E+00+
*       5.0000021696E+00               0
GRID*                446               0-3.695503560E+001.5843098411E+00+
*       6.0000024761E+00               0
GRID*                447               0-3.923143743E+008.3388449106E-01+
*       5.9999989043E+00               0
GRID*                448               0-3.695511416E+001.5842917281E+00+
*       4.0000002476E+00               0
GRID*                449               0-3.695523288E+001.5842642674E+00+
*       2.9999984072E+00               0
GRID*                450               0-3.923142442E+008.3389155558E-01+
*       2.9999983354E+00               0
GRID*                451               0-3.923143971E+008.3388293445E-01+
*       3.9999975910E+00               0
GRID*                452               0-7.803775993E-01-3.869588155E+00+
*       5.0000018143E+00               0
GRID*                453               0-7.803806834E-01-3.869587459E+00+
*       4.0000015529E+00               0
GRID*                454               02.7091782513E-05-3.946449387E+00+
*       3.9999981803E+00               0
GRID*                455               04.7022303268E-09-3.946449387E+00+
*       5.0000000000E+00               0
GRID*                456               07.8036839654E-01-3.869590310E+00+
*       2.9999995583E+00               0
GRID*                457               07.8036491951E-01-3.869591156E+00+
*       2.0000000925E+00               0
GRID*                458               01.5307239763E+00-3.641972995E+00+
*       2.0000001738E+00               0
GRID*                459               01.5307215141E+00-3.641973889E+00+
*       3.0000008034E+00               0
GRID*                460               0-3.325875420E+00-2.168736872E+00+
*       6.9999993144E+00               0
GRID*                461               04.0000000000E+005.3548918481E-02+
*       6.9999994242E+00               0
GRID*                462               04.0000000000E+005.3548438405E-02+
*       5.9999995419E+00               0
GRID*                463               03.9231439695E+008.3388294369E-01+
*       6.0000024090E+00               0
GRID*                464               03.9231424397E+008.3389156482E-01+
*       7.0000016646E+00               0
GRID*                465               03.3258779182E+00-2.168733395E+00+
*       6.9999995583E+00               0
GRID*                466               03.3258774491E+00-2.168734031E+00+
*       5.9999999542E+00               0
GRID*                467               03.6955035699E+00-1.477213557E+00+
*       6.0000024756E+00               0
GRID*                468               03.6955069486E+00-1.477205704E+00+
*       7.0000021503E+00               0
GRID*                469               0-3.325878377E+002.2758292469E+00+
*       1.0000000064E+01               0
GRID*                470               0-3.325878452E+002.2758291159E+00+
*       8.9999999735E+00               0
GRID*                471               0-3.695514558E+001.5842843833E+00+
*       8.9999999989E+00               0
GRID*                472               0-3.695515850E+001.5842813623E+00+
*       9.9999997704E+00               0
GRID*                473               0-2.222295161E+00-3.272318105E+00+
*       8.0000016326E+00               0
GRID*                474               0-2.222301204E+00-3.272314131E+00+
*       7.0000019225E+00               0
GRID*                475               0-1.530723968E+00-3.641972999E+00+
*       7.9999998262E+00               0
GRID*                476               0-1.530725416E+003.7490686379E+00+
*       5.0000011767E+00               0
GRID*                477               0-1.530722726E+003.7490696580E+00+
*       4.0000013216E+00               0
GRID*                478               0-2.222290506E+003.3794175097E+00+
*       3.9999989086E+00               0
GRID*                479               0-2.222261263E+003.3794367169E+00+
*       5.0000012002E+00               0
GRID*                480               0-2.222252677E+00-3.272346041E+00+
*       3.9999977840E+00               0
GRID*                481               0-2.222257317E+00-3.272342983E+00+
*       2.9999976423E+00               0
GRID*                482               0-1.530730119E+00-3.641970681E+00+
*       3.0000000417E+00               0
GRID*                483               0-1.530728007E+00-3.641971441E+00+
*       3.9999994961E+00               0
GRID*                484               03.9231367556E+00-7.268281031E-01+
*       8.0000013916E+00               0
GRID*                485               04.0000000000E+005.3549038991E-02+
*       7.9999998072E+00               0
GRID*                486               0-3.923138356E+008.3391522647E-01+
*       9.0000005864E+00               0
GRID*                487               0-2.828434603E+00-2.774869032E+00+
*       7.0000009787E+00               0
GRID*                488               03.9231383544E+008.3391523571E-01+
*       9.9999941364E-01               0
GRID*                489               03.9231397340E+008.3390743037E-01+
*       -2.096965885E-08               0
GRID*                490               03.6955158460E+001.5842813710E+00+
*       2.2955718173E-07               0
GRID*                491               03.6955145540E+001.5842843920E+00+
*       1.0000000011E+00               0
GRID*                492               01.5307227169E+003.7490696616E+00+
*       5.9999986784E+00               0
GRID*                493               01.5307254072E+003.7490686415E+00+
*       4.9999988233E+00               0
GRID*                494               07.8037761748E-013.9766843421E+00+
*       5.0000018143E+00               0
GRID*                495               07.8037283877E-013.9766854461E+00+
*       6.0000012423E+00               0
GRID*                496               02.8284199082E+00-2.774884782E+00+
*       8.0000011428E+00               0
GRID*                497               02.8284369039E+00-2.774866718E+00+
*       6.9999996779E+00               0
GRID*                498               03.3258782866E+00-2.168732897E+00+
*       7.9999996316E+00               0
GRID*                499               0-3.923144743E+00-7.267823598E-01+
*       5.0000021002E+00               0
GRID*                500               0-3.923143731E+00-7.267882512E-01+
*       4.0000010961E+00               0
GRID*                501               0-3.695503566E+00-1.477213566E+00+
*       3.9999975244E+00               0
GRID*                502               0-3.695503766E+00-1.477213138E+00+
*       4.9999981954E+00               0
GRID*                503               02.2222788290E+00-3.272328854E+00+
*       7.7592595360E-08               0
GRID*                504               02.8284268037E+00-2.774877413E+00+
*       1.8319007142E-07               0
GRID*                505               03.9231437333E+00-7.267882420E-01+
*       5.9999989039E+00               0
GRID*                506               04.0000000000E+005.3548131805E-02+
*       5.0000000000E+00               0
GRID*                507               02.8284394350E+00-2.774863912E+00+
*       3.9999980404E+00               0
GRID*                508               02.8284346095E+00-2.774869025E+00+
*       2.9999990213E+00               0
GRID*                509               03.3258754248E+00-2.168736864E+00+
*       3.0000006856E+00               0
GRID*                510               03.3258761296E+00-2.168735865E+00+
*       4.0000008646E+00               0
GRID*                511               03.9231409568E+008.3390005365E-01+
*       8.0000004969E+00               0
GRID*                512               07.8036593325E-013.9766871743E+00+
*       1.9999997056E+00               0
GRID*                513               07.8035554578E-013.9766896311E+00+
*       9.9999931287E-01               0
GRID*                514               0-5.050291310E-064.0535455826E+00+
*       9.9999952507E-01               0
GRID*                515               0-1.733671147E-054.0535455826E+00+
*       1.9999983657E+00               0
GRID*                516               03.6955232369E+001.5842643841E+00+
*       8.0000014428E+00               0
GRID*                517               03.6955232844E+001.5842642761E+00+
*       7.0000015928E+00               0
GRID*                518               03.3258755231E+002.2758331446E+00+
*       6.9999993149E+00               0
GRID*                519               03.3258754320E+002.2758332652E+00+
*       7.9999998171E+00               0
GRID*                520               0-2.222257368E+003.3794392629E+00+
*       7.0000023604E+00               0
GRID*                521               0-2.222252726E+003.3794423177E+00+
*       6.0000022152E+00               0
GRID*                522               0-2.828443990E+002.8819553535E+00+
*       5.9999985194E+00               0
GRID*                523               0-2.828436901E+002.8819629166E+00+
*       6.9999996793E+00               0
GRID*                524               05.9085014376E-074.0535455903E+00+
*       1.9531193640E-07               0
GRID*                525               0-7.803618099E-013.9766881401E+00+
*       6.7301011978E-08               0
GRID*                526               0-7.803626115E-013.9766879182E+00+
*       1.0000001838E+00               0
GRID*                527               0-3.325877552E+002.2758303074E+00+
*       5.9999999545E+00               0
GRID*                528               0-3.325877005E+002.2758310534E+00+
*       5.0000004454E+00               0
GRID*                529               0-3.695503760E+001.5843094136E+00+
*       5.0000018039E+00               0
GRID*                530               02.2223012664E+003.3794104443E+00+
*       7.0000019235E+00               0
GRID*                531               02.2222904981E+003.3794175149E+00+
*       6.0000010914E+00               0
GRID*                532               01.5307215859E+003.7490700970E+00+
*       6.9999991973E+00               0
GRID*                533               07.8037282995E-01-3.869589257E+00+
*       3.9999987578E+00               0
GRID*                534               07.8037760853E-01-3.869588153E+00+
*       4.9999981857E+00               0
GRID*                535               04.0000000000E+005.3547825395E-02+
*       4.0000004580E+00               0
GRID*                536               03.6955184875E+001.5842753507E+00+
*       9.0000006092E+00               0
GRID*                537               03.3258765614E+002.2758317167E+00+
*       9.0000000628E+00               0
GRID*                538               01.5307318478E+003.7490663021E+00+
*       2.0000003113E+00               0
GRID*                539               01.5307301861E+003.7490668927E+00+
*       3.0000000399E+00               0
GRID*                540               0-3.923140959E+008.3390004441E-01+
*       1.9999995031E+00               0
GRID*                541               0-1.732730396E-05-3.946449387E+00+
*       8.0000016340E+00               0
GRID*                542               02.2222952208E+003.3794144145E+00+
*       8.0000016298E+00               0
GRID*                543               01.5307240472E+003.7490692046E+00+
*       7.9999998256E+00               0
GRID*                544               0-4.000000000E+005.3548345240E-02+
*       -1.189028393E-07               0
GRID*                545               0-4.000000000E+005.3548625347E-02+
*       9.9999991302E-01               0
GRID*                546               0-2.222261209E+00-3.272340434E+00+
*       4.9999987926E+00               0
GRID*                547               0-2.222290440E+00-3.272321208E+00+
*       6.0000010838E+00               0
GRID*                548               03.9231437416E+008.3388450030E-01+
*       4.0000010957E+00               0
GRID*                549               03.9231390474E+008.3391133780E-01+
*       2.9999992150E+00               0
GRID*                550               03.6955069367E+001.5843019965E+00+
*       2.9999978488E+00               0
GRID*                551               03.6955035568E+001.5843098498E+00+
*       3.9999975239E+00               0
GRID*                552               03.6955158626E+00-1.477185078E+00+
*       9.9999997745E+00               0
GRID*                553               03.6955145632E+00-1.477188098E+00+
*       9.0000000006E+00               0
GRID*                554               0-3.325875528E+002.2758331367E+00+
*       3.0000006851E+00               0
GRID*                555               0-1.530732790E+00-3.641969738E+00+
*       1.0000001592E+00               0
GRID*                556               0-1.530731778E+00-3.641970091E+00+
*       2.0000003136E+00               0
GRID*                557               0-7.803790198E-013.9766840651E+00+
*       6.9999992242E+00               0
GRID*                558               0-7.803659425E-013.9766871724E+00+
*       8.0000002944E+00               0
GRID*                559               02.8284434791E+00-2.774859662E+00+
*       4.9999978340E+00               0
GRID*                560               02.8284439924E+00-2.774859155E+00+
*       5.9999985198E+00               0
GRID*                561               0-1.530725337E+00-3.641972432E+00+
*       4.9999988199E+00               0
GRID*                562               0-7.803684147E-013.9766864981E+00+
*       2.9999995580E+00               0
GRID*                563               0-7.803728480E-013.9766854442E+00+
*       3.9999987577E+00               0
GRID*                564               0-7.803617808E-01-3.869591957E+00+
*       9.9999999344E+00               0
GRID*                565               0-7.803625827E-01-3.869591732E+00+
*       8.9999998166E+00               0
GRID*                566               0-2.828436897E+00-2.774866725E+00+
*       3.0000003221E+00               0
GRID*                567               0-3.923139545E+00-7.268120784E-01+
*       9.9999998108E+00               0
GRID*                568               0-3.695518491E+00-1.477179065E+00+
*       9.0000006119E+00               0
GRID*                569               0-3.695515532E+00-1.477185876E+00+
*       1.0000000124E+01               0
GRID*                570               03.3258764622E+00-2.168735436E+00+
*       9.9999993399E-01               0
GRID*                571               03.3258753336E+00-2.168736985E+00+
*       2.0000001828E+00               0
GRID*                572               0-2.708236988E-05-3.946449387E+00+
*       6.0000018197E+00               0
GRID*                573               0-2.809472601E-05-3.946449387E+00+
*       7.0000021734E+00               0
GRID*                574               0-4.000000000E+005.3547336327E-02+
*       6.9999994243E+00               0
GRID*                575               02.2222527181E+003.3794423229E+00+
*       3.9999977848E+00               0
GRID*                576               02.2222612549E+003.3794367222E+00+
*       4.9999987998E+00               0
GRID*                577               0-2.828443473E+002.8819558631E+00+
*       4.9999978304E+00               0
GRID*                578               0-2.828439424E+002.8819601189E+00+
*       3.9999980366E+00               0
GRID*                579               0-3.325876232E+002.2758321393E+00+
*       4.0000008638E+00               0
GRID*                580               0-3.325876457E+00-2.168735444E+00+
*       9.0000000660E+00               0
GRID*                581               0-3.325878092E+00-2.168733244E+00+
*       1.0000000204E+01               0
GRID*                582               0-4.000000000E+005.3548909061E-02+
*       3.0000005758E+00               0
GRID*                583               0-4.000000000E+005.3548428984E-02+
*       4.0000004581E+00               0
GRID*                584               0-4.000000000E+005.3547815975E-02+
*       5.9999995420E+00               0
GRID*                585               02.2223012117E+00-3.272314126E+00+
*       2.9999980775E+00               0
GRID*                586               0-2.222284406E+00-3.272325177E+00+
*       9.0000006529E+00               0
GRID*                587               0-1.530735710E+00-3.641968712E+00+
*       9.0000005090E+00               0
GRID*                588               03.9231447527E+008.3387860910E-01+
*       5.0000021006E+00               0
GRID*                589               03.9231390383E+00-7.268150788E-01+
*       7.0000007844E+00               0
GRID*                590               0-3.325878390E+002.2758291719E+00+
*       7.9999996321E+00               0
GRID*                591               0-3.325878021E+002.2758296705E+00+
*       6.9999995588E+00               0
GRID*                592               0-7.803649103E-01-3.869591158E+00+
*       7.9999999075E+00               0
GRID*                593               0-7.803789918E-01-3.869587880E+00+
*       3.0000007762E+00               0
GRID*                594               0-2.828421863E+002.8819788920E+00+
*       9.0000006200E+00               0
GRID*                595               0-2.828419903E+002.8819809829E+00+
*       8.0000011446E+00               0
GRID*                596               03.3258783716E+002.2758292547E+00+
*       -6.420178991E-08               0
GRID*                597               03.3258784463E+002.2758291237E+00+
*       1.0000000265E+00               0
GRID*                598               0-4.702474181E-094.0535455826E+00+
*       5.0000000000E+00               0
GRID*                599               02.7082600611E-054.0535455826E+00+
*       6.0000018198E+00               0
GRID*                600               03.6955112294E+00-1.477195789E+00+
*       8.0000009194E+00               0
GRID*                601               0-1.530733147E+003.7490658665E+00+
*       1.0000000027E+01               0
GRID*                602               0-1.530732873E+003.7490659448E+00+
*       8.9999998427E+00               0
GRID*                603               0-2.222276110E+003.3794269510E+00+
*       9.0000001749E+00               0
GRID*                604               0-2.222279781E+003.3794245589E+00+
*       9.9999997702E+00               0
GRID*                605               03.3258780974E+00-2.168733236E+00+
*       -2.037840484E-07               0
GRID*                606               03.6955232903E+00-1.477167981E+00+
*       2.9999984084E+00               0
GRID*                607               0-7.803649382E-013.9766873448E+00+
*       2.0000000919E+00               0
GRID*                608               07.8037900103E-01-3.869587878E+00+
*       6.9999992238E+00               0
GRID*                609               01.5307301276E+00-3.641970677E+00+
*       6.9999999583E+00               0
GRID*                610               0-1.530732578E+003.7490661023E+00+
*       -8.569191065E-08               0
GRID*                611               0-1.530735797E+003.7490649178E+00+
*       9.9999949151E-01               0
GRID*                612               0-3.923144755E+008.3387859986E-01+
*       4.9999978994E+00               0
GRID*                613               03.3258781963E+002.2758295172E+00+
*       1.0000000197E+01               0
GRID*                614               0-4.000000000E+005.3549029571E-02+
*       2.0000001928E+00               0
GRID*                615               0-3.923139723E+00-7.268111816E-01+
*       -2.300523652E-08               0
GRID*                616               0-3.923138343E+00-7.268189857E-01+
*       9.9999941272E-01               0
GRID*                617               03.3258780159E+002.2758296783E+00+
*       3.0000004412E+00               0
GRID*                618               03.3258782730E+00-2.168732973E+00+
*       1.0000000071E+01               0
GRID*                619               03.3258783468E+00-2.168732842E+00+
*       8.9999999765E+00               0
GRID*                620               0-7.803555261E-01-3.869593442E+00+
*       9.9999931224E-01               0
GRID*                621               0-7.803659140E-01-3.869590986E+00+
*       1.9999997062E+00               0
GRID*                622               0-1.530730195E+003.7490668891E+00+
*       6.9999999601E+00               0
GRID*                623               0-1.530731857E+003.7490662985E+00+
*       7.9999996887E+00               0
GRID*                624               03.3258769026E+00-2.168734778E+00+
*       5.0000004457E+00               0
GRID*                625               0-1.530721595E+003.7490700934E+00+
*       3.0000008027E+00               0
GRID*                626               0-3.695523239E+00-1.477168098E+00+
*       8.0000014432E+00               0
GRID*                627               03.6955184950E+00-1.477179056E+00+
*       9.9999938812E-01               0
GRID*                628               03.6955232428E+00-1.477168089E+00+
*       1.9999985568E+00               0
GRID*                629               07.8038069262E-01-3.869587457E+00+
*       5.9999984471E+00               0
GRID*                630               01.5307280739E+003.7490676527E+00+
*       3.9999994963E+00               0
GRID*                631               0-3.923139036E+00-7.268150881E-01+
*       2.9999992156E+00               0
GRID*                632               0-2.222267248E+003.3794327687E+00+
*       8.0000014272E+00               0
GRID*                633               03.6955037562E+001.5843094223E+00+
*       4.9999981961E+00               0
GRID*                634               03.6955114125E+001.5842917368E+00+
*       5.9999997524E+00               0
GRID*                635               0-2.828427362E+002.8819730264E+00+
*       1.0000000007E+01               0
GRID*                636               0-1.530733064E+00-3.641969660E+00+
*       -2.544344888E-08               0
GRID*                637               0-7.803625533E-01-3.869591803E+00+
*       -3.054379920E-08               0
GRID*                638               0-3.923139736E+008.3390742113E-01+
*       1.0000000021E+01               0
GRID*                639               0-4.000000000E+005.3547900473E-02+
*       1.0000000119E+01               0
GRID*                640               02.8104142682E-05-3.946449387E+00+
*       2.9999978266E+00               0
GRID*                641               03.9231399243E+008.3390605832E-01+
*       8.9999999324E+00               0
GRID*                642               02.8284273556E+002.8819730331E+00+
*       -6.653276799E-09               0
GRID*                643               02.8284218566E+002.8819788987E+00+
*       9.9999938004E-01               0
GRID*                644               0-7.803776267E-013.9766843402E+00+
*       4.9999981857E+00               0
GRID*                645               0-7.803807111E-013.9766836439E+00+
*       5.9999984472E+00               0
GRID*                646               0-2.828427793E+00-2.774876333E+00+
*       8.9999998642E+00               0
GRID*                647               0-2.828430544E+00-2.774873372E+00+
*       8.0000001955E+00               0
GRID*                648               0-3.325877444E+00-2.168734039E+00+
*       4.0000000458E+00               0
GRID*                649               0-2.828443986E+00-2.774859162E+00+
*       4.0000014802E+00               0
GRID*                650               03.6955155359E+00-1.477185867E+00+
*       -1.240786921E-07               0
GRID*                651               0-1.530724056E+003.7490692009E+00+
*       2.0000001744E+00               0
GRID*                652               0-2.222278873E+003.3794251654E+00+
*       8.1377673024E-08               0
GRID*                653               0-2.222284467E+003.3794214765E+00+
*       9.9999935066E-01               0
GRID*                654               0-4.000000000E+005.3548122385E-02+
*       5.0000000000E+00               0
GRID*                655               01.5307226489E+00-3.641973452E+00+
*       4.0000013254E+00               0
GRID*                656               02.2222904481E+00-3.272321203E+00+
*       3.9999989162E+00               0
GRID*                657               02.2222672017E+00-3.272336477E+00+
*       8.0000014235E+00               0
GRID*                658               02.2222760610E+00-3.272330653E+00+
*       9.0000001730E+00               0
GRID*                659               0-3.923136754E+00-7.268281123E-01+
*       1.9999986084E+00               0
GRID*                660               0-3.695515859E+00-1.477185087E+00+
*       2.2551988474E-07               0
GRID*                661               0-3.695514560E+00-1.477188107E+00+
*       9.9999999936E-01               0
GRID*                662               02.8284273833E+00-2.774876834E+00+
*       1.0000000013E+01               0
GRID*                663               02.8284218713E+00-2.774882689E+00+
*       9.0000006224E+00               0
GRID*                664               05.0504770500E-06-3.946449387E+00+
*       9.9999952434E-01               0
GRID*                665               01.7336722571E-05-3.946449387E+00+
*       1.9999983660E+00               0
GRID*                666               0-1.530728083E+003.7490676491E+00+
*       6.0000005037E+00               0
GRID*                667               0-7.803555550E-013.9766896293E+00+
*       9.0000006871E+00               0
GRID*                668               03.3258762272E+002.2758321471E+00+
*       5.9999991362E+00               0
GRID*                669               0-5.906715780E-07-3.946449395E+00+
*       1.9356650620E-07               0
GRID*                670               03.3258783849E+002.2758291797E+00+
*       2.0000003679E+00               0
GRID*                671               02.2222797729E+003.3794245641E+00+
*       2.2978542227E-07               0
GRID*                672               02.2222761019E+003.3794269562E+00+
*       9.9999982514E-01               0
GRID*                673               0-6.002724583E-074.0535455903E+00+
*       9.9999998047E+00               0
GRID*                674               0-7.803625822E-013.9766879865E+00+
*       1.0000000029E+01               0
GRID*                675               03.9231395466E+00-7.268120691E-01+
*       1.8915724182E-07               0
GRID*                676               03.9231367650E+008.3392436283E-01+
*       1.9999986080E+00               0
GRID*                677               03.6955112190E+001.5842920821E+00+
*       1.9999990798E+00               0
GRID*                678               02.8284345883E+002.8819652416E+00+
*       7.0000009791E+00               0
GRID*                679               02.8284394170E+002.8819601256E+00+
*       6.0000019634E+00               0
GRID*                680               0-2.828426781E+002.8819736075E+00+
*       1.9133973533E-07               0
GRID*                681               0-2.828427788E+002.8819725329E+00+
*       1.0000001409E+00               0
GRID*                682               03.9231395556E+008.3390832759E-01+
*       9.9999998086E+00               0
GRID*                683               03.6955155193E+001.5842821597E+00+
*       1.0000000120E+01               0
GRID*                684               0-3.325878268E+00-2.168732981E+00+
*       -7.061673890E-08               0
GRID*                685               0-3.325878342E+00-2.168732850E+00+
*       1.0000000235E+00               0
GRID*                686               02.8284305308E+002.8819695806E+00+
*       8.0000001940E+00               0
GRID*                687               02.2222797365E+00-3.272328247E+00+
*       9.9999997701E+00               0
GRID*                688               0-2.222278821E+00-3.272328859E+00+
*       9.9999999224E+00               0
GRID*                689               0-1.530732493E+00-3.641969896E+00+
*       1.0000000086E+01               0
GRID*                690               07.8036259194E-01-3.869591730E+00+
*       1.0000001834E+00               0
GRID*                691               0-2.828426797E+00-2.774877420E+00+
*       9.9999998168E+00               0
GRID*                692               02.2222573248E+00-3.272342978E+00+
*       7.0000023577E+00               0
GRID*                693               0-3.325875328E+00-2.168736993E+00+
*       7.9999998172E+00               0
GRID*                694               0-2.222279729E+00-3.272328253E+00+
*       2.2991620455E-07               0
GRID*                695               07.8036179001E-01-3.869591955E+00+
*       6.5610532169E-08               0
GRID*                696               01.5307331385E+003.7490658701E+00+
*       -2.697188696E-08               0
GRID*                697               01.5307328641E+003.7490659484E+00+
*       1.0000001573E+00               0
GRID*                698               07.8036180062E-013.9766881420E+00+
*       9.9999999327E+00               0
GRID*                699               04.0000000000E+005.3547909896E-02+
*       -1.188133092E-07               0
GRID*                700               0-2.828427377E+00-2.774876840E+00+
*       -1.323278913E-08               0
GRID*                701               01.5307330726E+00-3.641969656E+00+
*       1.0000000025E+01               0
GRID*                702               01.5307357185E+00-3.641968708E+00+
*       9.9999949096E-01               0
GRID*                703               01.5307325014E+00-3.641969893E+00+
*       -8.631291592E-08               0
GRID*                704               07.8036257293E-013.9766879883E+00+
*       -2.874603980E-08               0
GRID*                705               09.7544422378E-01-4.850379046E+00+
*       9.0000004259E+00               0
GRID*                706               09.7545473116E-01-4.850376566E+00+
*       7.9999998003E+00               0
GRID*                707               01.9134151113E+00-4.565849664E+00+
*       8.0000001135E+00               0
GRID*                708               01.9134164756E+00-4.565849166E+00+
*       9.0000000297E+00               0
GRID*                709               02.7778498955E+004.2108942503E+00+
*       1.0000000000E+01               0
GRID*                710               02.7778558820E+004.2108902988E+00+
*       9.0000004141E+00               0
GRID*                711               01.9134202204E+004.6729440398E+00+
*       9.0000001986E+00               0
GRID*                712               01.9134169562E+004.6729452430E+00+
*       1.0000000000E+01               0
GRID*                713               04.9039280079E+00-9.218841392E-01+
*       2.9999988742E+00               0
GRID*                714               04.9039264097E+00-9.218932061E-01+
*       1.9999994054E+00               0
GRID*                715               05.0000000000E+005.3548127413E-02+
*       2.0000000000E+00               0
GRID*                716               05.0000000000E+005.3548127413E-02+
*       3.0000000000E+00               0
GRID*                717               03.5355425219E+003.5890708576E+00+
*       3.0000008141E+00               0
GRID*                718               03.5355248654E+003.5890895827E+00+
*       1.9999993275E+00               0
GRID*                719               02.7778360594E+004.2109033311E+00+
*       1.9999990405E+00               0
GRID*                720               02.7778260155E+004.2109099344E+00+
*       2.9999983463E+00               0
GRID*                721               0-4.157345664E+002.8314025714E+00+
*       2.0000002376E+00               0
GRID*                722               0-4.157346574E+002.8314013507E+00+
*       1.0000001496E+00               0
GRID*                723               0-4.619398757E+001.9669570044E+00+
*       9.9999954043E-01               0
GRID*                724               0-4.619403952E+001.9669449615E+00+
*       1.9999987818E+00               0
GRID*                725               04.9039251506E+00-9.219003491E-01+
*       9.9999982629E-01               0
GRID*                726               05.0000000000E+005.3548127413E-02+
*       1.0000000000E+00               0
GRID*                727               0-4.619395556E+001.9669643743E+00+
*       0.0000000000E+00               0
GRID*                728               0-4.903924684E+001.0289994116E+00+
*       0.0000000000E+00               0
GRID*                729               0-4.903925162E+001.0289965944E+00+
*       9.9999982629E-01               0
GRID*                730               0-4.157346029E+00-2.724305669E+00+
*       5.9999998070E+00               0
GRID*                731               0-4.157346479E+00-2.724305064E+00+
*       4.9999998505E+00               0
GRID*                732               0-3.535550486E+00-3.481966217E+00+
*       5.0000014818E+00               0
GRID*                733               0-3.535547076E+00-3.481969833E+00+
*       6.0000011933E+00               0
GRID*                734               0-5.000000000E+005.3548115637E-02+
*       9.0000000000E+00               0
GRID*                735               0-5.000000000E+005.3548115637E-02+
*       8.0000000000E+00               0
GRID*                736               0-4.903926407E+00-9.218932176E-01+
*       8.0000005946E+00               0
GRID*                737               0-4.903925148E+00-9.219003607E-01+
*       9.0000001737E+00               0
GRID*                738               04.6193832213E+00-1.859896756E+00+
*       5.0000018017E+00               0
GRID*                739               04.6193915222E+00-1.859877506E+00+
*       4.0000005912E+00               0
GRID*                740               04.9039294462E+00-9.218759793E-01+
*       3.9999983974E+00               0
GRID*                741               04.9039300598E+00-9.218724983E-01+
*       4.9999981956E+00               0
GRID*                742               04.9039246727E+00-9.219031667E-01+
*       1.0000000000E+01               0
GRID*                743               04.9039231646E+00-9.219116164E-01+
*       9.0000004972E+00               0
GRID*                744               05.0000000000E+005.3548127413E-02+
*       9.0000000000E+00               0
GRID*                745               05.0000000000E+005.3548127413E-02+
*       1.0000000000E+01               0
GRID*                746               0-2.777873878E+004.2108784674E+00+
*       2.9999983427E+00               0
GRID*                747               0-2.777867426E+004.2108827089E+00+
*       1.9999987885E+00               0
GRID*                748               0-3.535537669E+003.5890760050E+00+
*       1.9999995998E+00               0
GRID*                749               0-3.535542321E+003.5890710712E+00+
*       2.9999992076E+00               0
GRID*                750               0-3.535524882E+00-3.481993371E+00+
*       1.9999993275E+00               0
GRID*                751               0-3.535527038E+00-3.481991084E+00+
*       9.9999951071E-01               0
GRID*                752               0-2.777845624E+00-4.103800713E+00+
*       9.9999970716E-01               0
GRID*                753               0-2.777835995E+00-4.103807051E+00+
*       1.9999990405E+00               0
GRID*                754               09.7545545526E-014.9574725864E+00+
*       8.0000002480E+00               0
GRID*                755               09.7545963024E-014.9574716007E+00+
*       7.0000004952E+00               0
GRID*                756               03.0416589862E-055.0535455826E+00+
*       7.0000017489E+00               0
GRID*                757               01.9219525122E-055.0535455826E+00+
*       8.0000010965E+00               0
GRID*                758               01.9134108014E+00-4.565851238E+00+
*       6.0000003791E+00               0
GRID*                759               01.9134084538E+00-4.565852095E+00+
*       5.0000005238E+00               0
GRID*                760               02.7778312372E+00-4.103810184E+00+
*       5.0000012876E+00               0
GRID*                761               02.7778216132E+00-4.103816519E+00+
*       6.0000019541E+00               0
GRID*                762               09.7545248067E-014.9574732887E+00+
*       9.0000000709E+00               0
GRID*                763               06.1287545360E-065.0535455826E+00+
*       9.0000003407E+00               0
GRID*                764               09.7547061056E-014.9574690084E+00+
*       4.0000011441E+00               0
GRID*                765               09.7546832992E-014.9574695468E+00+
*       3.0000010081E+00               0
GRID*                766               0-3.042836151E-055.0535455826E+00+
*       2.9999982511E+00               0
GRID*                767               0-2.892588532E-055.0535455826E+00+
*       3.9999983317E+00               0
GRID*                768               05.8888423582E-09-4.946449395E+00+
*       1.0000000000E+01               0
GRID*                769               0-6.128754075E-06-4.946449387E+00+
*       9.0000003407E+00               0
GRID*                770               09.7545141625E-01-4.850377374E+00+
*       1.0000000000E+01               0
GRID*                771               0-4.157348107E+002.8313993031E+00+
*       0.0000000000E+00               0
GRID*                772               0-4.619385843E+00-1.859890678E+00+
*       2.9999985845E+00               0
GRID*                773               0-4.619390250E+00-1.859880458E+00+
*       1.9999992284E+00               0
GRID*                774               0-4.157347708E+00-2.724303415E+00+
*       1.9999999690E+00               0
GRID*                775               0-4.157347364E+00-2.724303877E+00+
*       2.9999999358E+00               0
GRID*                776               0-4.903928006E+00-9.218841507E-01+
*       7.0000011258E+00               0
GRID*                777               0-4.903929444E+00-9.218759909E-01+
*       6.0000016026E+00               0
GRID*                778               0-4.619391518E+00-1.859877517E+00+
*       5.9999994088E+00               0
GRID*                779               0-4.619404001E+00-1.859848570E+00+
*       7.0000012298E+00               0
GRID*                780               02.7778673499E+00-4.103786410E+00+
*       1.9999987885E+00               0
GRID*                781               02.7778558200E+00-4.103794001E+00+
*       9.9999958590E-01               0
GRID*                782               03.5355342238E+00-3.481983464E+00+
*       9.9999989054E-01               0
GRID*                783               03.5355376856E+00-3.481979793E+00+
*       1.9999995998E+00               0
GRID*                784               0-1.913405862E+00-4.565853042E+00+
*       6.9999993168E+00               0
GRID*                785               0-1.913406533E+00-4.565852797E+00+
*       5.9999993584E+00               0
GRID*                786               0-9.754642580E-01-4.850374317E+00+
*       6.0000007688E+00               0
GRID*                787               0-9.754596317E-01-4.850375409E+00+
*       7.0000004952E+00               0
GRID*                788               03.5355328873E+003.5890810637E+00+
*       1.0000000000E+01               0
GRID*                789               03.5355341987E+003.5890796846E+00+
*       9.0000001095E+00               0
GRID*                790               0-4.619390265E+001.9669766878E+00+
*       8.0000007716E+00               0
GRID*                791               0-4.619385857E+001.9669869068E+00+
*       7.0000014155E+00               0
GRID*                792               0-4.903923816E+001.0290042325E+00+
*       7.0000002805E+00               0
GRID*                793               0-4.903921419E+001.0290178335E+00+
*       8.0000010805E+00               0
GRID*                794               04.1573465711E+002.8314013556E+00+
*       4.9999998505E+00               0
GRID*                795               04.1573470332E+002.8314007360E+00+
*       3.9999998951E+00               0
GRID*                796               03.5355503568E+003.5890625486E+00+
*       4.0000014734E+00               0
GRID*                797               03.5355504696E+003.5890624290E+00+
*       5.0000014818E+00               0
GRID*                798               0-4.619382670E+001.9669942941E+00+
*       6.0000018819E+00               0
GRID*                799               0-4.903928822E+001.0289758293E+00+
*       5.9999986132E+00               0
GRID*                800               0-4.619391534E+001.9669737471E+00+
*       4.0000005912E+00               0
GRID*                801               0-4.619404021E+001.9669448016E+00+
*       2.9999987702E+00               0
GRID*                802               0-4.903928019E+001.0289803844E+00+
*       2.9999988742E+00               0
GRID*                803               0-4.903929457E+001.0289722245E+00+
*       3.9999983974E+00               0
GRID*                804               0-9.754683855E-01-4.850373343E+00+
*       5.0000010128E+00               0
GRID*                805               0-9.754706123E-01-4.850372817E+00+
*       4.0000011441E+00               0
GRID*                806               02.8925884856E-05-4.946449387E+00+
*       3.9999983317E+00               0
GRID*                807               05.8792205991E-09-4.946449387E+00+
*       5.0000000000E+00               0
GRID*                808               09.7545964329E-01-4.850375406E+00+
*       2.9999995048E+00               0
GRID*                809               09.7545546823E-01-4.850376392E+00+
*       1.9999997520E+00               0
GRID*                810               01.9134084478E+00-4.565852097E+00+
*       2.0000005249E+00               0
GRID*                811               01.9134058726E+00-4.565853038E+00+
*       3.0000006832E+00               0
GRID*                812               0-4.157345666E+00-2.724306155E+00+
*       6.9999997720E+00               0
GRID*                813               05.0000000000E+005.3548127413E-02+
*       7.0000000000E+00               0
GRID*                814               05.0000000000E+005.3548127413E-02+
*       6.0000000000E+00               0
GRID*                815               04.9039294547E+001.0289722360E+00+
*       6.0000016026E+00               0
GRID*                816               04.9039280166E+001.0289803959E+00+
*       7.0000011258E+00               0
GRID*                817               04.1573473707E+00-2.724303867E+00+
*       7.0000000642E+00               0
GRID*                818               04.1573469477E+00-2.724304435E+00+
*       6.0000001049E+00               0
GRID*                819               04.6193826613E+00-1.859898055E+00+
*       6.0000018819E+00               0
GRID*                820               04.6193858471E+00-1.859890667E+00+
*       7.0000014155E+00               0
GRID*                821               0-4.157348107E+002.8313993031E+00+
*       1.0000000000E+01               0
GRID*                822               0-4.157348038E+002.8313993876E+00+
*       9.0000000088E+00               0
GRID*                823               0-4.619394024E+001.9669679759E+00+
*       9.0000002243E+00               0
GRID*                824               0-4.619395556E+001.9669643743E+00+
*       1.0000000000E+01               0
GRID*                825               0-2.777867340E+00-4.103786417E+00+
*       8.0000012115E+00               0
GRID*                826               0-2.777873789E+00-4.103782171E+00+
*       7.0000016573E+00               0
GRID*                827               0-1.913408437E+00-4.565852102E+00+
*       7.9999994751E+00               0
GRID*                828               0-1.913408473E+004.6729483260E+00+
*       5.0000005238E+00               0
GRID*                829               0-1.913406562E+004.6729490230E+00+
*       4.0000006416E+00               0
GRID*                830               0-2.777862278E+004.2108860935E+00+
*       3.9999991450E+00               0
GRID*                831               0-2.777831299E+004.2109064605E+00+
*       5.0000012876E+00               0
GRID*                832               0-2.777821603E+00-4.103816526E+00+
*       3.9999980459E+00               0
GRID*                833               0-2.777825956E+00-4.103813661E+00+
*       2.9999983463E+00               0
GRID*                834               0-1.913413119E+00-4.565850392E+00+
*       2.9999997645E+00               0
GRID*                835               0-1.913410791E+00-4.565851242E+00+
*       3.9999996209E+00               0
GRID*                836               04.9039214069E+00-9.219215881E-01+
*       8.0000010805E+00               0
GRID*                837               05.0000000000E+005.3548127413E-02+
*       8.0000000000E+00               0
GRID*                838               0-4.903923176E+001.0290078617E+00+
*       9.0000004972E+00               0
GRID*                839               0-3.535542330E+00-3.481974868E+00+
*       7.0000007924E+00               0
GRID*                840               04.9039231742E+001.0290078733E+00+
*       9.9999950275E-01               0
GRID*                841               04.9039246821E+001.0289994231E+00+
*       0.0000000000E+00               0
GRID*                842               04.6193955518E+001.9669643852E+00+
*       0.0000000000E+00               0
GRID*                843               04.6193940192E+001.9669679868E+00+
*       9.9999977573E-01               0
GRID*                844               01.9134065515E+004.6729490275E+00+
*       5.9999993584E+00               0
GRID*                845               01.9134084618E+004.6729483305E+00+
*       4.9999994762E+00               0
GRID*                846               09.7546838383E-014.9574695341E+00+
*       5.0000010128E+00               0
GRID*                847               09.7546425644E-014.9574705085E+00+
*       6.0000007688E+00               0
GRID*                848               03.5355248906E+00-3.481993362E+00+
*       8.0000006725E+00               0
GRID*                849               03.5355425471E+00-3.481974637E+00+
*       6.9999991859E+00               0
GRID*                850               04.1573477149E+00-2.724303405E+00+
*       8.0000000310E+00               0
GRID*                851               0-4.903930058E+00-9.218725098E-01+
*       5.0000018044E+00               0
GRID*                852               0-4.903928809E+00-9.218795956E-01+
*       4.0000013868E+00               0
GRID*                853               0-4.619382657E+00-1.859898066E+00+
*       3.9999981181E+00               0
GRID*                854               0-4.619383217E+00-1.859896767E+00+
*       4.9999981983E+00               0
GRID*                855               02.7778498404E+00-4.103797946E+00+
*       0.0000000000E+00               0
GRID*                856               03.5355329241E+00-3.481984855E+00+
*       0.0000000000E+00               0
GRID*                857               04.9039288108E+00-9.218795841E-01+
*       5.9999986132E+00               0
GRID*                858               05.0000000000E+005.3548127413E-02+
*       5.0000000000E+00               0
GRID*                859               03.5355470846E+00-3.481969825E+00+
*       3.9999988067E+00               0
GRID*                860               03.5355423378E+00-3.481974859E+00+
*       2.9999992076E+00               0
GRID*                861               04.1573456729E+00-2.724306145E+00+
*       3.0000002280E+00               0
GRID*                862               04.1573460352E+00-2.724305659E+00+
*       4.0000001930E+00               0
GRID*                863               04.9039264187E+001.0289894629E+00+
*       8.0000005946E+00               0
GRID*                864               09.7545471820E-014.9574727604E+00+
*       2.0000001997E+00               0
GRID*                865               09.7544421103E-014.9574752411E+00+
*       9.9999957410E-01               0
GRID*                866               0-6.140529472E-065.0535455826E+00+
*       9.9999965929E-01               0
GRID*                867               0-1.923129879E-055.0535455826E+00+
*       1.9999989035E+00               0
GRID*                868               04.6194039475E+001.9669449724E+00+
*       8.0000012182E+00               0
GRID*                869               04.6194040165E+001.9669448124E+00+
*       7.0000012298E+00               0
GRID*                870               04.1573457576E+002.8314024463E+00+
*       6.9999997720E+00               0
GRID*                871               04.1573456571E+002.8314025812E+00+
*       7.9999997624E+00               0
GRID*                872               0-2.777826025E+004.2109099278E+00+
*       7.0000016537E+00               0
GRID*                873               0-2.777821671E+004.2109127903E+00+
*       6.0000019541E+00               0
GRID*                874               0-3.535550365E+003.5890625403E+00+
*       5.9999985266E+00               0
GRID*                875               0-3.535542530E+003.5890708493E+00+
*       6.9999991858E+00               0
GRID*                876               0-5.888845134E-095.0535455903E+00+
*       0.0000000000E+00               0
GRID*                877               0-9.754514149E-014.9574735631E+00+
*       0.0000000000E+00               0
GRID*                878               0-9.754524922E-014.9574732864E+00+
*       9.9999992908E-01               0
GRID*                879               0-4.157347040E+002.8314007262E+00+
*       6.0000001049E+00               0
GRID*                880               0-4.157346578E+002.8314013458E+00+
*       5.0000001495E+00               0
GRID*                881               0-4.619383230E+001.9669929956E+00+
*       5.0000018017E+00               0
GRID*                882               02.7778738680E+004.2108784739E+00+
*       7.0000016573E+00               0
GRID*                883               02.7778622683E+004.2108861001E+00+
*       6.0000008550E+00               0
GRID*                884               01.9134058804E+004.6729492724E+00+
*       6.9999993168E+00               0
GRID*                885               09.7546426958E-01-4.850374315E+00+
*       3.9999992312E+00               0
GRID*                886               09.7546839706E-01-4.850373341E+00+
*       4.9999989872E+00               0
GRID*                887               05.0000000000E+005.3548127413E-02+
*       4.0000000000E+00               0
GRID*                888               04.6193987523E+001.9669570153E+00+
*       9.0000004596E+00               0
GRID*                889               04.1573465674E+002.8314013605E+00+
*       8.9999998504E+00               0
GRID*                890               01.9134151199E+004.6729459010E+00+
*       1.9999998865E+00               0
GRID*                891               01.9134131382E+004.6729466241E+00+
*       2.9999997645E+00               0
GRID*                892               0-4.903926421E+001.0289894513E+00+
*       1.9999994054E+00               0
GRID*                893               0-1.921952472E-05-4.946449387E+00+
*       8.0000010965E+00               0
GRID*                894               02.7778674164E+004.2108827155E+00+
*       8.0000012115E+00               0
GRID*                895               01.9134084558E+004.6729483327E+00+
*       7.9999994751E+00               0
GRID*                896               0-5.000000000E+005.3548115635E-02+
*       0.0000000000E+00               0
GRID*                897               0-5.000000000E+005.3548115638E-02+
*       1.0000000000E+00               0
GRID*                898               0-2.777831227E+00-4.103810190E+00+
*       4.9999987124E+00               0
GRID*                899               0-2.777862194E+00-4.103789805E+00+
*       6.0000008550E+00               0
GRID*                900               04.9039288194E+001.0289758408E+00+
*       4.0000013868E+00               0
GRID*                901               04.9039238138E+001.0290042441E+00+
*       2.9999997195E+00               0
GRID*                902               04.6193858525E+001.9669869176E+00+
*       2.9999985845E+00               0
GRID*                903               04.6193826657E+001.9669943050E+00+
*       3.9999981181E+00               0
GRID*                904               04.6193955511E+00-1.859868134E+00+
*       1.0000000000E+01               0
GRID*                905               04.6193940111E+00-1.859871735E+00+
*       9.0000002243E+00               0
GRID*                906               0-4.157345764E+002.8314024365E+00+
*       3.0000002280E+00               0
GRID*                907               0-1.913416465E+00-4.565849170E+00+
*       9.9999997026E-01               0
GRID*                908               0-1.913415100E+00-4.565849669E+00+
*       1.9999998865E+00               0
GRID*                909               0-9.754683415E-014.9574695445E+00+
*       6.9999989919E+00               0
GRID*                910               0-9.754547297E-014.9574727581E+00+
*       7.9999998003E+00               0
GRID*                911               03.5355504947E+00-3.481966209E+00+
*       4.9999985182E+00               0
GRID*                912               03.5355503819E+00-3.481966328E+00+
*       5.9999985266E+00               0
GRID*                913               0-1.913408443E+00-4.565852100E+00+
*       4.9999994762E+00               0
GRID*                914               0-9.754596418E-014.9574715984E+00+
*       2.9999995048E+00               0
GRID*                915               0-9.754642680E-014.9574705062E+00+
*       3.9999992312E+00               0
GRID*                916               0-9.754514047E-01-4.850377376E+00+
*       1.0000000000E+01               0
GRID*                917               0-9.754524820E-01-4.850377096E+00+
*       9.0000000709E+00               0
GRID*                918               0-3.535542539E+00-3.481974646E+00+
*       3.0000008141E+00               0
GRID*                919               0-4.903924670E+00-9.219031783E-01+
*       1.0000000000E+01               0
GRID*                920               0-4.619398738E+00-1.859860774E+00+
*       9.0000004596E+00               0
GRID*                921               0-4.619395547E+00-1.859868145E+00+
*       1.0000000000E+01               0
GRID*                922               04.1573464823E+00-2.724305059E+00+
*       1.0000001496E+00               0
GRID*                923               04.1573455724E+00-2.724306280E+00+
*       2.0000002376E+00               0
GRID*                924               0-2.891411798E-05-4.946449387E+00+
*       6.0000016683E+00               0
GRID*                925               0-3.041658966E-05-4.946449387E+00+
*       7.0000017489E+00               0
GRID*                926               0-5.000000000E+005.3548115637E-02+
*       7.0000000000E+00               0
GRID*                927               02.7778216617E+004.2109127968E+00+
*       3.9999980459E+00               0
GRID*                928               02.7778312894E+004.2109064671E+00+
*       4.9999987124E+00               0
GRID*                929               0-3.535550478E+003.5890624207E+00+
*       4.9999985182E+00               0
GRID*                930               0-3.535547068E+003.5890660372E+00+
*       3.9999988067E+00               0
GRID*                931               0-4.157346127E+002.8314019505E+00+
*       4.0000001930E+00               0
GRID*                932               0-4.157346476E+00-2.724305069E+00+
*       8.9999998504E+00               0
GRID*                933               0-4.157348010E+00-2.724303020E+00+
*       1.0000000000E+01               0
GRID*                934               0-5.000000000E+005.3548115638E-02+
*       3.0000000000E+00               0
GRID*                935               0-5.000000000E+005.3548115638E-02+
*       4.0000000000E+00               0
GRID*                936               0-5.000000000E+005.3548115637E-02+
*       6.0000000000E+00               0
GRID*                937               02.7778737988E+00-4.103782165E+00+
*       2.9999983427E+00               0
GRID*                938               0-2.777855810E+00-4.103794007E+00+
*       9.0000004141E+00               0
GRID*                939               0-1.913420200E+00-4.565847806E+00+
*       9.0000001986E+00               0
GRID*                940               04.9039300682E+001.0289687549E+00+
*       5.0000018044E+00               0
GRID*                941               04.9039238043E+00-9.219079872E-01+
*       7.0000002805E+00               0
GRID*                942               0-4.157347807E+002.8313996968E+00+
*       8.0000000310E+00               0
GRID*                943               0-4.157347463E+002.8314001588E+00+
*       7.0000000642E+00               0
GRID*                944               0-9.754554567E-01-4.850376394E+00+
*       8.0000002480E+00               0
GRID*                945               0-9.754683316E-01-4.850373356E+00+
*       3.0000010081E+00               0
GRID*                946               0-3.535527030E+003.5890872879E+00+
*       9.0000004893E+00               0
GRID*                947               0-3.535524874E+003.5890895743E+00+
*       8.0000006725E+00               0
GRID*                948               04.1573481007E+002.8313993129E+00+
*       0.0000000000E+00               0
GRID*                949               04.1573480314E+002.8313993974E+00+
*       9.9999999125E-01               0
GRID*                950               0-5.879509695E-095.0535455826E+00+
*       5.0000000000E+00               0
GRID*                951               02.8914117943E-055.0535455826E+00+
*       6.0000016683E+00               0
GRID*                952               04.6193902540E+00-1.859880447E+00+
*       8.0000007716E+00               0
GRID*                953               0-1.913416967E+004.6729452385E+00+
*       1.0000000000E+01               0
GRID*                954               0-1.913416495E+004.6729453986E+00+
*       9.0000000297E+00               0
GRID*                955               0-2.777845701E+004.2108969919E+00+
*       9.0000002928E+00               0
GRID*                956               0-2.777849905E+004.2108942437E+00+
*       1.0000000000E+01               0
GRID*                957               04.1573480164E+00-2.724303010E+00+
*       0.0000000000E+00               0
GRID*                958               04.6194040051E+00-1.859848559E+00+
*       2.9999987702E+00               0
GRID*                959               0-9.754554668E-014.9574725841E+00+
*       1.9999997520E+00               0
GRID*                960               09.7546834314E-01-4.850373353E+00+
*       6.9999989919E+00               0
GRID*                961               01.9134131298E+00-4.565850388E+00+
*       7.0000002355E+00               0
GRID*                962               0-1.913416967E+004.6729452385E+00+
*       0.0000000000E+00               0
GRID*                963               0-1.913420231E+004.6729440353E+00+
*       9.9999980140E-01               0
GRID*                964               0-4.903930070E+001.0289687434E+00+
*       4.9999981956E+00               0
GRID*                965               04.1573481007E+002.8313993129E+00+
*       1.0000000000E+01               0
GRID*                966               0-5.000000000E+005.3548115638E-02+
*       2.0000000000E+00               0
GRID*                967               0-4.903924670E+00-9.219031783E-01+
*       0.0000000000E+00               0
GRID*                968               0-4.903923162E+00-9.219116279E-01+
*       9.9999950275E-01               0
GRID*                969               04.1573474563E+002.8314001685E+00+
*       2.9999999358E+00               0
GRID*                970               04.1573480164E+00-2.724303010E+00+
*       1.0000000000E+01               0
GRID*                971               04.1573479454E+00-2.724303096E+00+
*       9.0000000088E+00               0
GRID*                972               0-9.754442122E-01-4.850379048E+00+
*       9.9999957410E-01               0
GRID*                973               0-9.754547196E-01-4.850376568E+00+
*       2.0000001997E+00               0
GRID*                974               0-1.913413149E+004.6729466196E+00+
*       7.0000002355E+00               0
GRID*                975               0-1.913415131E+004.6729458965E+00+
*       8.0000001135E+00               0
GRID*                976               04.1573464859E+00-2.724305054E+00+
*       5.0000001495E+00               0
GRID*                977               0-1.913405891E+004.6729492679E+00+
*       3.0000006832E+00               0
GRID*                978               0-4.619403932E+00-1.859848730E+00+
*       8.0000012182E+00               0
GRID*                979               04.6193987425E+00-1.859860763E+00+
*       9.9999954042E-01               0
GRID*                980               04.6194039361E+00-1.859848719E+00+
*       1.9999987818E+00               0
GRID*                981               09.7547062383E-01-4.850372815E+00+
*       5.9999988559E+00               0
GRID*                982               01.9134108096E+004.6729474738E+00+
*       3.9999996209E+00               0
GRID*                983               0-4.903923802E+00-9.219079987E-01+
*       2.9999997195E+00               0
GRID*                984               0-2.777836069E+004.2109033245E+00+
*       8.0000009595E+00               0
GRID*                985               04.6193832258E+001.9669930065E+00+
*       4.9999981983E+00               0
GRID*                986               04.6193915295E+001.9669737580E+00+
*       5.9999994088E+00               0
GRID*                987               0-3.535532896E+003.5890810554E+00+
*       1.0000000000E+01               0
GRID*                988               0-1.913416938E+00-4.565849009E+00+
*       0.0000000000E+00               0
GRID*                989               0-9.754514047E-01-4.850377376E+00+
*       0.0000000000E+00               0
GRID*                990               0-4.903924684E+001.0289994116E+00+
*       1.0000000000E+01               0
GRID*                991               0-5.000000000E+005.3548115635E-02+
*       1.0000000000E+01               0
GRID*                992               03.0428360861E-05-4.946449387E+00+
*       2.9999982511E+00               0
GRID*                993               04.9039251599E+001.0289966060E+00+
*       9.0000001737E+00               0
GRID*                994               03.5355328873E+003.5890810637E+00+
*       0.0000000000E+00               0
GRID*                995               03.5355270214E+003.5890872962E+00+
*       9.9999951071E-01               0
GRID*                996               0-9.754683954E-014.9574695318E+00+
*       4.9999989872E+00               0
GRID*                997               0-9.754706221E-014.9574690061E+00+
*       5.9999988559E+00               0
GRID*                998               0-3.535534215E+00-3.481983473E+00+
*       9.0000001095E+00               0
GRID*                999               0-3.535537677E+00-3.481979801E+00+
*       8.0000004002E+00               0
GRID*               1000               0-4.157346941E+00-2.724304444E+00+
*       3.9999998951E+00               0
GRID*               1001               0-3.535550374E+00-3.481966337E+00+
*       4.0000014734E+00               0
GRID*               1002               04.6193955511E+00-1.859868134E+00+
*       0.0000000000E+00               0
GRID*               1003               0-1.913408467E+004.6729483282E+00+
*       2.0000005249E+00               0
GRID*               1004               0-2.777849905E+004.2108942437E+00+
*       0.0000000000E+00               0
GRID*               1005               0-2.777855892E+004.2108902922E+00+
*       9.9999958590E-01               0
GRID*               1006               0-5.000000000E+005.3548115638E-02+
*       5.0000000000E+00               0
GRID*               1007               01.9134065437E+00-4.565852793E+00+
*       4.0000006416E+00               0
GRID*               1008               02.7778622038E+00-4.103789798E+00+
*       3.9999991450E+00               0
GRID*               1009               02.7778360052E+00-4.103807045E+00+
*       8.0000009595E+00               0
GRID*               1010               02.7778456335E+00-4.103800706E+00+
*       9.0000002928E+00               0
GRID*               1011               0-4.903921405E+00-9.219215996E-01+
*       1.9999989195E+00               0
GRID*               1012               0-4.619395547E+00-1.859868145E+00+
*       0.0000000000E+00               0
GRID*               1013               0-4.619394007E+00-1.859871746E+00+
*       9.9999977573E-01               0
GRID*               1014               03.5355329241E+00-3.481984855E+00+
*       1.0000000000E+01               0
GRID*               1015               03.5355270466E+00-3.481991076E+00+
*       9.0000004893E+00               0
GRID*               1016               06.1405284547E-06-4.946449387E+00+
*       9.9999965929E-01               0
GRID*               1017               01.9231297954E-05-4.946449387E+00+
*       1.9999989035E+00               0
GRID*               1018               0-1.913410820E+004.6729474693E+00+
*       6.0000003791E+00               0
GRID*               1019               0-9.754442226E-014.9574752388E+00+
*       9.0000004259E+00               0
GRID*               1020               04.1573461201E+002.8314019603E+00+
*       5.9999998070E+00               0
GRID*               1021               05.8888460219E-09-4.946449395E+00+
*       0.0000000000E+00               0
GRID*               1022               04.1573478008E+002.8313997066E+00+
*       1.9999999690E+00               0
GRID*               1023               02.7778498955E+004.2108942503E+00+
*       0.0000000000E+00               0
GRID*               1024               02.7778456915E+004.2108969985E+00+
*       9.9999970716E-01               0
GRID*               1025               0-5.888845911E-095.0535455903E+00+
*       1.0000000000E+01               0
GRID*               1026               0-9.754514149E-014.9574735631E+00+
*       1.0000000000E+01               0
GRID*               1027               04.9039246727E+00-9.219031667E-01+
*       0.0000000000E+00               0
GRID*               1028               04.9039214168E+001.0290178450E+00+
*       1.9999989195E+00               0
GRID*               1029               04.6193902609E+001.9669766987E+00+
*       1.9999992284E+00               0
GRID*               1030               03.5355423127E+003.5890710795E+00+
*       7.0000007924E+00               0
GRID*               1031               03.5355470595E+003.5890660455E+00+
*       6.0000011933E+00               0
GRID*               1032               0-3.535532896E+003.5890810554E+00+
*       0.0000000000E+00               0
GRID*               1033               0-3.535534207E+003.5890796763E+00+
*       9.9999989054E-01               0
GRID*               1034               04.9039246821E+001.0289994231E+00+
*       1.0000000000E+01               0
GRID*               1035               04.6193955518E+001.9669643852E+00+
*       1.0000000000E+01               0
GRID*               1036               0-4.157348010E+00-2.724303020E+00+
*       0.0000000000E+00               0
GRID*               1037               0-4.157347939E+00-2.724303105E+00+
*       9.9999999125E-01               0
GRID*               1038               03.5355376605E+003.5890760133E+00+
*       8.0000004002E+00               0
GRID*               1039               02.7778498404E+00-4.103797946E+00+
*       1.0000000000E+01               0
GRID*               1040               0-2.777849831E+00-4.103797953E+00+
*       1.0000000000E+01               0
GRID*               1041               0-1.913416938E+00-4.565849009E+00+
*       1.0000000000E+01               0
GRID*               1042               09.7545249358E-01-4.850377094E+00+
*       9.9999992908E-01               0
GRID*               1043               0-3.535532916E+00-3.481984863E+00+
*       1.0000000000E+01               0
GRID*               1044               02.7778259653E+00-4.103813654E+00+
*       7.0000016537E+00               0
GRID*               1045               0-4.157345566E+00-2.724306290E+00+
*       7.9999997624E+00               0
GRID*               1046               0-2.777849831E+00-4.103797953E+00+
*       0.0000000000E+00               0
GRID*               1047               09.7545141625E-01-4.850377374E+00+
*       0.0000000000E+00               0
GRID*               1048               01.9134169562E+004.6729452430E+00+
*       0.0000000000E+00               0
GRID*               1049               01.9134164843E+004.6729454031E+00+
*       9.9999997026E-01               0
GRID*               1050               09.7545140335E-014.9574735654E+00+
*       1.0000000000E+01               0
GRID*               1051               05.0000000000E+005.3548127413E-02+
*       0.0000000000E+00               0
GRID*               1052               0-3.535532916E+00-3.481984863E+00+
*       0.0000000000E+00               0
GRID*               1053               01.9134169489E+00-4.565849005E+00+
*       1.0000000000E+01               0
GRID*               1054               01.9134202113E+00-4.565847802E+00+
*       9.9999980140E-01               0
GRID*               1055               01.9134169489E+00-4.565849005E+00+
*       0.0000000000E+00               0
GRID*               1056               09.7545140335E-014.9574735654E+00+
*       0.0000000000E+00               0
$*
$* ELEMENT CARDS
$*
$*  Mesh Collector: Laminate1-Extrusion
$*  Mesh: Laminate1-Ply1
CHEXA        321       3     353     354     355     356     705     706+
+            707     708
CHEXA        322       3     357     358     359     360     709     710+
+            711     712
CHEXA        323       3     361     362     363     364     713     714+
+            715     716
CHEXA        324       3     365     366     367     368     717     718+
+            719     720
CHEXA        325       3     369     370     371     372     721     722+
+            723     724
CHEXA        326       3     362     373     374     363     714     725+
+            726     715
CHEXA        327       3     371     375     376     377     723     727+
+            728     729
CHEXA        328       3     378     379     380     381     730     731+
+            732     733
CHEXA        329       3     382     383     384     385     734     735+
+            736     737
CHEXA        330       3     386     387     388     389     738     739+
+            740     741
CHEXA        331       3     390     391     392     393     742     743+
+            744     745
CHEXA        332       3     394     395     396     397     746     747+
+            748     749
CHEXA        333       3     398     399     400     401     750     751+
+            752     753
CHEXA        334       3     402     403     404     405     754     755+
+            756     757
CHEXA        335       3     406     407     408     409     758     759+
+            760     761
CHEXA        336       3     410     402     405     411     762     754+
+            757     763
CHEXA        337       3     412     413     414     415     764     765+
+            766     767
CHEXA        338       3     416     417     353     418     768     769+
+            705     770
CHEXA        339       3     370     419     375     371     722     771+
+            727     723
CHEXA        340       3     420     421     422     423     772     773+
+            774     775
CHEXA        341       3     424     425     426     427     776     777+
+            778     779
CHEXA        342       3     428     429     430     431     780     781+
+            782     783
CHEXA        343       3     432     433     434     435     784     785+
+            786     787
CHEXA        344       3     436     437     358     357     788     789+
+            710     709
CHEXA        345       3     438     439     440     441     790     791+
+            792     793
CHEXA        346       3     442     443     444     445     794     795+
+            796     797
CHEXA        347       3     439     446     447     440     791     798+
+            799     792
CHEXA        348       3     448     449     450     451     800     801+
+            802     803
CHEXA        349       3     452     453     454     455     804     805+
+            806     807
CHEXA        350       3     456     457     458     459     808     809+
+            810     811
CHEXA        351       3     427     426     378     460     779     778+
+            730     812
CHEXA        352       3     461     462     463     464     813     814+
+            815     816
CHEXA        353       3     465     466     467     468     817     818+
+            819     820
CHEXA        354       3     469     470     471     472     821     822+
+            823     824
CHEXA        355       3     473     474     432     475     825     826+
+            784     827
CHEXA        356       3     476     477     478     479     828     829+
+            830     831
CHEXA        357       3     480     481     482     483     832     833+
+            834     835
CHEXA        358       3     391     484     485     392     743     836+
+            837     744
CHEXA        359       3     486     441     383     382     838     793+
+            735     734
CHEXA        360       3     460     378     381     487     812     730+
+            733     839
CHEXA        361       3     488     489     490     491     840     841+
+            842     843
CHEXA        362       3     492     493     494     495     844     845+
+            846     847
CHEXA        363       3     496     497     465     498     848     849+
+            817     850
CHEXA        364       3     499     500     501     502     851     852+
+            853     854
CHEXA        365       3     429     503     504     430     781     855+
+            856     782
CHEXA        366       3     505     389     506     462     857     741+
+            858     814
CHEXA        367       3     507     508     509     510     859     860+
+            861     862
CHEXA        368       3     485     461     464     511     837     813+
+            816     863
CHEXA        369       3     512     513     514     515     864     865+
+            866     867
CHEXA        370       3     516     517     518     519     868     869+
+            870     871
CHEXA        371       3     520     521     522     523     872     873+
+            874     875
CHEXA        372       3     514     524     525     526     866     876+
+            877     878
CHEXA        373       3     527     528     529     446     879     880+
+            881     798
CHEXA        374       3     530     531     492     532     882     883+
+            844     884
CHEXA        375       3     455     454     533     534     807     806+
+            885     886
CHEXA        376       3     388     361     364     535     740     713+
+            716     887
CHEXA        377       3     536     516     519     537     888     868+
+            871     889
CHEXA        378       3     368     367     538     539     720     719+
+            890     891
CHEXA        379       3     372     371     377     540     724     723+
+            729     892
CHEXA        380       3     417     541     354     353     769     893+
+            706     705
CHEXA        381       3     358     542     543     359     710     894+
+            895     711
CHEXA        382       3     377     376     544     545     729     728+
+            896     897
CHEXA        383       3     381     380     546     547     733     732+
+            898     899
CHEXA        384       3     548     549     550     551     900     901+
+            902     903
CHEXA        385       3     552     553     391     390     904     905+
+            743     742
CHEXA        386       3     397     396     369     554     749     748+
+            721     906
CHEXA        387       3     401     400     555     556     753     752+
+            907     908
CHEXA        388       3     405     404     557     558     757     756+
+            909     910
CHEXA        389       3     409     408     559     560     761     760+
+            911     912
CHEXA        390       3     546     480     483     561     898     832+
+            835     913
CHEXA        391       3     487     381     547     474     839     733+
+            899     826
CHEXA        392       3     415     414     562     563     767     766+
+            914     915
CHEXA        393       3     564     565     417     416     916     917+
+            769     768
CHEXA        394       3     423     422     398     566     775     774+
+            750     918
CHEXA        395       3     567     385     568     569     919     737+
+            920     921
CHEXA        396       3     431     430     570     571     783     782+
+            922     923
CHEXA        397       3     435     434     572     573     787     786+
+            924     925
CHEXA        398       3     441     440     574     383     793     792+
+            926     735
CHEXA        399       3     445     444     575     576     797     796+
+            927     928
CHEXA        400       3     577     578     579     528     929     930+
+            931     880
CHEXA        401       3     569     568     580     581     921     920+
+            932     933
CHEXA        402       3     451     450     582     583     803     802+
+            934     935
CHEXA        403       3     574     584     425     424     926     936+
+            777     776
CHEXA        404       3     459     458     428     585     811     810+
+            780     937
CHEXA        405       3     586     473     475     587     938     825+
+            827     939
CHEXA        406       3     462     506     588     463     814     858+
+            940     815
CHEXA        407       3     468     467     505     589     820     819+
+            857     941
CHEXA        408       3     590     591     439     438     942     943+
+            791     790
CHEXA        409       3     475     432     435     592     827     784+
+            787     944
CHEXA        410       3     479     478     578     577     831     830+
+            930     929
CHEXA        411       3     483     482     593     453     835     834+
+            945     805
CHEXA        412       3     594     595     590     470     946     947+
+            942     822
CHEXA        413       3     491     490     596     597     843     842+
+            948     949
CHEXA        414       3     495     494     598     599     847     846+
+            950     951
CHEXA        415       3     543     532     403     402     895     884+
+            755     754
CHEXA        416       3     498     465     468     600     850     817+
+            820     952
CHEXA        417       3     601     602     603     604     953     954+
+            955     956
CHEXA        418       3     430     504     605     570     782     856+
+            957     922
CHEXA        419       3     510     509     606     387     862     861+
+            958     739
CHEXA        420       3     515     514     526     607     867     866+
+            878     959
CHEXA        421       3     354     608     609     355     706     960+
+            961     707
CHEXA        422       3     526     525     610     611     878     877+
+            962     963
CHEXA        423       3     446     529     612     447     798     881+
+            964     799
CHEXA        424       3     532     492     495     403     884     844+
+            847     755
CHEXA        425       3     613     537     437     436     965     889+
+            789     788
CHEXA        426       3     389     388     535     506     741     740+
+            887     858
CHEXA        427       3     539     538     512     413     891     890+
+            864     765
CHEXA        428       3     540     377     545     614     892     729+
+            897     966
CHEXA        429       3     553     600     484     391     905     952+
+            836     743
CHEXA        430       3     545     544     615     616     897     896+
+            967     968
CHEXA        431       3     547     546     561     433     899     898+
+            913     785
CHEXA        432       3     440     447     584     574     792     799+
+            936     926
CHEXA        433       3     551     550     617     443     903     902+
+            969     795
CHEXA        434       3     618     619     553     552     970     971+
+            905     904
CHEXA        435       3     554     369     372     449     906     721+
+            724     801
CHEXA        436       3     556     555     620     621     908     907+
+            972     973
CHEXA        437       3     558     557     622     623     910     909+
+            974     975
CHEXA        438       3     560     559     624     466     912     911+
+            976     818
CHEXA        439       3     542     530     532     543     894     882+
+            884     895
CHEXA        440       3     563     562     625     477     915     914+
+            977     829
CHEXA        441       3     384     424     427     626     736     776+
+            779     978
CHEXA        442       3     566     398     401     481     918     750+
+            753     833
CHEXA        443       3     571     570     627     628     923     922+
+            979     980
CHEXA        444       3     573     572     629     608     925     924+
+            981     960
CHEXA        445       3     383     574     424     384     735     926+
+            776     736
CHEXA        446       3     576     575     630     493     928     927+
+            982     845
CHEXA        447       3     583     582     631     500     935     934+
+            983     852
CHEXA        448       3     602     623     632     603     954     975+
+            984     955
CHEXA        449       3     585     428     431     508     937     780+
+            783     860
CHEXA        450       3     506     535     548     588     858     887+
+            900     940
CHEXA        451       3     463     588     633     634     815     940+
+            985     986
CHEXA        452       3     592     435     573     541     944     787+
+            925     893
CHEXA        453       3     604     603     594     635     956     955+
+            946     987
CHEXA        454       3     555     636     637     620     907     988+
+            989     972
CHEXA        455       3     638     486     382     639     990     838+
+            734     991
CHEXA        456       3     453     593     640     454     805     945+
+            992     806
CHEXA        457       3     641     511     516     536     993     863+
+            868     888
CHEXA        458       3     597     596     642     643     949     948+
+            994     995
CHEXA        459       3     599     598     644     645     951     950+
+            996     997
CHEXA        460       3     646     647     473     586     998     999+
+            825     938
CHEXA        461       3     379     648     649     380     731    1000+
+           1001     732
CHEXA        462       3     570     605     650     627     922     957+
+           1002     979
CHEXA        463       3     561     483     453     452     913     835+
+            805     804
CHEXA        464       3     387     606     361     388     739     958+
+            713     740
CHEXA        465       3     607     526     611     651     959     878+
+            963    1003
CHEXA        466       3     611     610     652     653     963     962+
+           1004    1005
CHEXA        467       3     447     612     654     584     799     964+
+           1006     936
CHEXA        468       3     403     495     599     404     755     847+
+            951     756
CHEXA        469       3     407     655     656     408     759    1007+
+           1008     760
CHEXA        470       3     356     355     657     658     708     707+
+           1009    1010
CHEXA        471       3     413     512     515     414     765     864+
+            867     766
CHEXA        472       3     614     545     616     659     966     897+
+            968    1011
CHEXA        473       3     616     615     660     661     968     967+
+           1012    1013
CHEXA        474       3     433     561     452     434     785     913+
+            804     786
CHEXA        475       3     385     384     626     568     737     736+
+            978     920
CHEXA        476       3     443     617     365     444     795     969+
+            717     796
CHEXA        477       3     662     663     619     618    1014    1015+
+            971     970
CHEXA        478       3     449     372     540     450     801     724+
+            892     802
CHEXA        479       3     502     501     648     379     854     853+
+           1000     731
CHEXA        480       3     621     620     664     665     973     972+
+           1016    1017
CHEXA        481       3     557     645     666     622     909     997+
+           1018     974
CHEXA        482       3     623     622     520     632     975     974+
+            872     984
CHEXA        483       3     466     624     386     467     818     976+
+            738     819
CHEXA        484       3     411     405     558     667     763     757+
+            910    1019
CHEXA        485       3     477     625     394     478     829     977+
+            746     830
CHEXA        486       3     481     401     556     482     833     753+
+            908     834
CHEXA        487       3     628     627     373     362     980     979+
+            725     714
CHEXA        488       3     608     629     406     609     960     981+
+            758     961
CHEXA        489       3     359     543     402     410     711     895+
+            754     762
CHEXA        490       3     493     630     412     494     845     982+
+            764     846
CHEXA        491       3     500     631     420     501     852     983+
+            772     853
CHEXA        492       3     508     431     571     509     860     783+
+            923     861
CHEXA        493       3     535     364     549     548     887     716+
+            901     900
CHEXA        494       3     634     633     442     668     986     985+
+            794    1020
CHEXA        495       3     541     573     608     354     893     925+
+            960     706
CHEXA        496       3     528     579     448     529     880     931+
+            800     881
CHEXA        497       3     620     637     669     664     972     989+
+           1021    1016
CHEXA        498       3     454     640     456     533     806     992+
+            808     885
CHEXA        499       3     670     597     643     366    1022     949+
+            995     718
CHEXA        500       3     643     642     671     672     995     994+
+           1023    1024
CHEXA        501       3     645     644     476     666     997     996+
+            828    1018
CHEXA        502       3     464     463     634     517     816     815+
+            986     869
CHEXA        503       3     673     411     667     674    1025     763+
+           1019    1026
CHEXA        504       3     627     650     675     373     979    1002+
+           1027     725
CHEXA        505       3     549     676     677     550     901    1028+
+           1029     902
CHEXA        506       3     678     679     531     530    1030    1031+
+            883     882
CHEXA        507       3     651     611     653     395    1003     963+
+           1005     747
CHEXA        508       3     653     652     680     681    1005    1004+
+           1032    1033
CHEXA        509       3     584     654     499     425     936    1006+
+            851     777
CHEXA        510       3     404     599     645     557     756     951+
+            997     909
CHEXA        511       3     682     641     536     683    1034     993+
+            888    1035
CHEXA        512       3     589     505     462     461     941     857+
+            814     813
CHEXA        513       3     414     515     607     562     766     867+
+            959     914
CHEXA        514       3     659     616     661     421    1011     968+
+           1013     773
CHEXA        515       3     661     660     684     685    1013    1012+
+           1036    1037
CHEXA        516       3     434     452     455     572     786     804+
+            807     924
CHEXA        517       3     686     678     530     542    1038    1030+
+            882     894
CHEXA        518       3     591     527     446     439     943     879+
+            798     791
CHEXA        519       3     444     365     368     575     796     717+
+            720     927
CHEXA        520       3     687     658     663     662    1039    1010+
+           1015    1014
CHEXA        521       3     450     540     614     582     802     892+
+            966     934
CHEXA        522       3     688     586     587     689    1040     938+
+            939    1041
CHEXA        523       3     665     664     690     457    1017    1016+
+           1042     809
CHEXA        524       3     565     592     541     417     917     944+
+            893     769
CHEXA        525       3     474     547     433     432     826     899+
+            785     784
CHEXA        526       3     632     520     523     595     984     872+
+            875     947
CHEXA        527       3     467     386     389     505     819     738+
+            741     857
CHEXA        528       3     581     580     646     691     933     932+
+            998    1043
CHEXA        529       3     478     394     397     578     830     746+
+            749     930
CHEXA        530       3     677     491     597     670    1029     843+
+            949    1022
CHEXA        531       3     482     556     621     593     834     908+
+            973     945
CHEXA        532       3     691     646     586     688    1043     998+
+            938    1040
CHEXA        533       3     393     392     641     682     745     744+
+            993    1034
CHEXA        534       3     609     406     409     692     961     758+
+            761    1044
CHEXA        535       3     626     427     460     693     978     779+
+            812    1045
CHEXA        536       3     494     412     415     598     846     764+
+            767     950
CHEXA        537       3     501     420     423     648     853     772+
+            775    1000
CHEXA        538       3     400     694     636     555     752    1046+
+            988     907
CHEXA        539       3     509     571     628     606     861     923+
+            980     958
CHEXA        540       3     587     475     592     565     939     827+
+            944     917
CHEXA        541       3     364     363     676     549     716     715+
+           1028     901
CHEXA        542       3     537     519     686     437     889     871+
+           1038     789
CHEXA        543       3     580     693     647     646     932    1045+
+            999     998
CHEXA        544       3     472     471     486     638     824     823+
+            838     990
CHEXA        545       3     664     669     695     690    1016    1021+
+           1047    1042
CHEXA        546       3     533     456     459     655     885     808+
+            811    1007
CHEXA        547       3     366     643     672     367     718     995+
+           1024     719
CHEXA        548       3     470     590     438     471     822     942+
+            790     823
CHEXA        549       3     672     671     696     697    1024    1023+
+           1048    1049
CHEXA        550       3     666     476     479     521    1018     828+
+            831     873
CHEXA        551       3     517     634     668     518     869     986+
+           1020     870
CHEXA        552       3     698     410     411     673    1050     762+
+            763    1025
CHEXA        553       3     373     675     699     374     725    1027+
+           1051     726
CHEXA        554       3     550     677     670     617     902    1029+
+           1022     969
CHEXA        555       3     395     653     681     396     747    1005+
+           1033     748
CHEXA        556       3     437     686     542     358     789    1038+
+            894     710
CHEXA        557       3     681     680     419     370    1033    1032+
+            771     722
CHEXA        558       3     425     499     502     426     777     851+
+            854     778
CHEXA        559       3     559     507     510     624     911     859+
+            862     976
CHEXA        560       3     484     589     461     485     836     941+
+            813     837
CHEXA        561       3     562     607     651     625     914     959+
+           1003     977
CHEXA        562       3     663     496     498     619    1015     848+
+            850     971
CHEXA        563       3     421     661     685     422     773    1013+
+           1037     774
CHEXA        564       3     685     684     700     399    1037    1036+
+           1052     751
CHEXA        565       3     572     455     534     629     924     807+
+            886     981
CHEXA        566       3     380     649     480     546     732    1001+
+            832     898
CHEXA        567       3     575     368     539     630     927     720+
+            891     982
CHEXA        568       3     701     356     658     687    1053     708+
+           1010    1039
CHEXA        569       3     582     614     659     631     934     966+
+           1011     983
CHEXA        570       3     600     468     589     484     952     820+
+            941     836
CHEXA        571       3     457     690     702     458     809    1042+
+           1054     810
CHEXA        572       3     471     438     441     486     823     790+
+            793     838
CHEXA        573       3     595     523     591     590     947     875+
+            943     942
CHEXA        574       3     588     548     551     633     940     900+
+            903     985
CHEXA        575       3     418     353     356     701     770     705+
+            708    1053
CHEXA        576       3     603     632     595     594     955     984+
+            947     946
CHEXA        577       3     578     397     554     579     930     749+
+            906     931
CHEXA        578       3     593     621     665     640     945     973+
+           1017     992
CHEXA        579       3     392     485     511     641     744     837+
+            863     993
CHEXA        580       3     692     409     560     497    1044     761+
+            912     849
CHEXA        581       3     693     460     487     647    1045     812+
+            839     999
CHEXA        582       3     598     415     563     644     950     767+
+            915     996
CHEXA        583       3     648     423     566     649    1000     775+
+            918    1001
CHEXA        584       3     606     628     362     361     958     980+
+            714     713
CHEXA        585       3     363     374     488     676     715     726+
+            840    1028
CHEXA        586       3     679     445     576     531    1031     797+
+            928     883
CHEXA        587       3     622     666     521     520     974    1018+
+            873     872
CHEXA        588       3     355     609     692     657     707     961+
+           1044    1009
CHEXA        589       3     612     451     583     654     964     803+
+            935    1006
CHEXA        590       3     690     695     703     702    1042    1047+
+           1055    1054
CHEXA        591       3     655     459     585     656    1007     811+
+            937    1008
CHEXA        592       3     367     672     697     538     719    1024+
+           1049     890
CHEXA        593       3     689     587     565     564    1041     939+
+            917     916
CHEXA        594       3     408     656     507     559     760    1008+
+            859     911
CHEXA        595       3     521     479     577     522     873     831+
+            929     874
CHEXA        596       3     518     668     679     678     870    1020+
+           1031    1030
CHEXA        597       3     360     359     410     698     712     711+
+            762    1050
CHEXA        598       3     511     464     517     516     863     816+
+            869     868
CHEXA        599       3     674     667     602     601    1026    1019+
+            954     953
CHEXA        600       3     617     670     366     365     969    1022+
+            718     717
CHEXA        601       3     396     681     370     369     748    1033+
+            722     721
CHEXA        602       3     519     518     678     686     871     870+
+           1030    1038
CHEXA        603       3     523     522     527     591     875     874+
+            879     943
CHEXA        604       3     697     696     704     513    1049    1048+
+           1056     865
CHEXA        605       3     426     502     379     378     778     854+
+            731     730
CHEXA        606       3     531     576     493     492     883     928+
+            845     844
CHEXA        607       3     624     510     387     386     976     862+
+            739     738
CHEXA        608       3     658     657     496     663    1010    1009+
+            848    1015
CHEXA        609       3     625     651     395     394     977    1003+
+            747     746
CHEXA        610       3     422     685     399     398     774    1037+
+            751     750
CHEXA        611       3     399     700     694     400     751    1052+
+           1046     752
CHEXA        612       3     629     534     407     406     981     886+
+            759     758
CHEXA        613       3     630     539     413     412     982     891+
+            765     764
CHEXA        614       3     568     626     693     580     920     978+
+           1045     932
CHEXA        615       3     631     659     421     420     983    1011+
+            773     772
CHEXA        616       3     458     702     429     428     810    1054+
+            781     780
CHEXA        617       3     522     577     528     527     874     929+
+            880     879
CHEXA        618       3     619     498     600     553     971     850+
+            952     905
CHEXA        619       3     633     551     443     442     985     903+
+            795     794
CHEXA        620       3     579     554     449     448     931     906+
+            801     800
CHEXA        621       3     667     558     623     602    1019     910+
+            975     954
CHEXA        622       3     640     665     457     456     992    1017+
+            809     808
CHEXA        623       3     529     448     451     612     881     800+
+            803     964
CHEXA        624       3     497     560     466     465     849     912+
+            818     817
CHEXA        625       3     639     382     385     567     991     734+
+            737     919
CHEXA        626       3     647     487     474     473     999     839+
+            826     825
CHEXA        627       3     644     563     477     476     996     915+
+            829     828
CHEXA        628       3     649     566     481     480    1001     918+
+            833     832
CHEXA        629       3     676     488     491     677    1028     840+
+            843    1029
CHEXA        630       3     534     533     655     407     886     885+
+           1007     759
CHEXA        631       3     374     699     489     488     726    1051+
+            841     840
CHEXA        632       3     683     536     537     613    1035     888+
+            889     965
CHEXA        633       3     657     692     497     496    1009    1044+
+            849     848
CHEXA        634       3     635     594     470     469     987     946+
+            822     821
CHEXA        635       3     702     703     503     429    1054    1055+
+            855     781
CHEXA        636       3     656     585     508     507    1008     937+
+            860     859
CHEXA        637       3     654     583     500     499    1006     935+
+            852     851
CHEXA        638       3     538     697     513     512     890    1049+
+            865     864
CHEXA        639       3     513     704     524     514     865    1056+
+            876     866
CHEXA        640       3     668     442     445     679    1020     794+
+            797    1031
MATCID         1     321
MATCID         1     421
MATCID         1     488
MATCID         2     322
MATCID         2     378
MATCID         2     439
MATCID         2     549
MATCID         2     567
MATCID         2     592
MATCID         3     323
MATCID         3     326
MATCID         3     331
MATCID         3     376
MATCID         3     426
MATCID         3     553
MATCID         4     324
MATCID         5     325
MATCID         6     327
MATCID         6     347
MATCID         6     544
MATCID         6     572
MATCID         7     328
MATCID         7     360
MATCID         7     394
MATCID         7     461
MATCID         7     543
MATCID         7     564
MATCID         7     581
MATCID         7     583
MATCID         7     610
MATCID         8     329
MATCID         8     403
MATCID         8     430
MATCID         8     445
MATCID         8     447
MATCID         8     472
MATCID         8     509
MATCID         8     569
MATCID         8     625
MATCID         8     637
MATCID         9     330
MATCID        10     332
MATCID        10     371
MATCID        10     453
MATCID        10     508
MATCID        10     576
MATCID        11     333
MATCID        11     383
MATCID        11     391
MATCID        11     460
MATCID        11     532
MATCID        11     566
MATCID        11     611
MATCID        11     626
MATCID        12     334
MATCID        12     336    THRU     337
MATCID        12     468
MATCID        12     536
MATCID        12     552
MATCID        12     639
MATCID        13     335
MATCID        13     469    THRU     470
MATCID        13     534
MATCID        13     568
MATCID        13     588
MATCID        13     591
MATCID        13     635
MATCID        14     338
MATCID        14     545
MATCID        15     339
MATCID        15     354
MATCID        15     373
MATCID        15     408
MATCID        15     435
MATCID        15     496
MATCID        15     518
MATCID        15     548
MATCID        15     620
MATCID        16     340
MATCID        16     535
MATCID        16     537
MATCID        16     614
MATCID        17     341
MATCID        17     395
MATCID        17     473
MATCID        17     475
MATCID        17     558
MATCID        18     342
MATCID        19     343
MATCID        19     411
MATCID        19     436
MATCID        19     454
MATCID        19     463
MATCID        19     474
MATCID        19     531
MATCID        19     593
MATCID        20     344
MATCID        20     399
MATCID        20     547
MATCID        21     345
MATCID        21     379
MATCID        22     346
MATCID        22     425
MATCID        22     458
MATCID        22     476
MATCID        22     499
MATCID        22     542
MATCID        22     596
MATCID        22     600
MATCID        22     602
MATCID        22     640
MATCID        23     348
MATCID        23     623
MATCID        24     349
MATCID        24     393
MATCID        24     397
MATCID        24     452
MATCID        24     497
MATCID        24     516
MATCID        24     524
MATCID        25     350
MATCID        25     546
MATCID        25     571
MATCID        25     575
MATCID        25     590
MATCID        25     612
MATCID        25     630
MATCID        26     351
MATCID        27     352
MATCID        27     368
MATCID        27     406
MATCID        27     450
MATCID        27     493
MATCID        27     533
MATCID        27     541
MATCID        27     579
MATCID        27     585
MATCID        27     631
MATCID        28     353
MATCID        28     416
MATCID        28     419
MATCID        28     434
MATCID        28     443
MATCID        28     483
MATCID        28     539
MATCID        28     607
MATCID        28     618
MATCID        29     355
MATCID        29     357
MATCID        29     522
MATCID        29     538
MATCID        30     356
MATCID        30     417
MATCID        30     448
MATCID        30     466
MATCID        30     485
MATCID        30     550
MATCID        30     587
MATCID        30     609
MATCID        31     358
MATCID        32     359
MATCID        33     361
MATCID        33     451
MATCID        33     457
MATCID        33     502
MATCID        33     511
MATCID        33     598
MATCID        33     629
MATCID        34     362
MATCID        34     415
MATCID        34     424
MATCID        34     427
MATCID        34     490
MATCID        34     597
MATCID        34     604
MATCID        34     613
MATCID        34     638
MATCID        35     363
MATCID        36     364
MATCID        37     365
MATCID        37     449
MATCID        37     520
MATCID        37     608
MATCID        38     366
MATCID        39     367
MATCID        39     396
MATCID        39     477
MATCID        39     492
MATCID        39     559
MATCID        40     369
MATCID        40     471
MATCID        41     370
MATCID        41     413
MATCID        41     433
MATCID        41     530
MATCID        41     619
MATCID        41     632
MATCID        42     372
MATCID        42     392
MATCID        42     503
MATCID        42     510
MATCID        43     374
MATCID        43     446
MATCID        44     375
MATCID        44     565
MATCID        45     377
MATCID        46     380
MATCID        46     495
MATCID        46     523
MATCID        46     622
MATCID        47     381
MATCID        48     382
MATCID        48     402
MATCID        48     428
MATCID        48     455
MATCID        48     521
MATCID        48     589
MATCID        49     384
MATCID        50     385
MATCID        50     407
MATCID        50     429
MATCID        50     504
MATCID        50     527
MATCID        51     386
MATCID        51     400
MATCID        51     412
MATCID        51     557
MATCID        51     577
MATCID        51     601
MATCID        51     617
MATCID        51     634
MATCID        52     387
MATCID        52     405
MATCID        52     486
MATCID        53     388
MATCID        53     420
MATCID        53     484
MATCID        53     513
MATCID        54     389
MATCID        54     636
MATCID        55     390
MATCID        55     525
MATCID        56     398
MATCID        57     401
MATCID        57     479
MATCID        57     515
MATCID        57     563
MATCID        58     404
MATCID        58     616
MATCID        59     409
MATCID        59     540
MATCID        60     410
MATCID        61     414
MATCID        62     418
MATCID        62     438
MATCID        62     562
MATCID        63     422
MATCID        63     440
MATCID        63     465
MATCID        63     481
MATCID        63     501
MATCID        63     561
MATCID        63     599
MATCID        63     627
MATCID        64     423
MATCID        64     478
MATCID        65     431
MATCID        66     432
MATCID        67     437
MATCID        67     621
MATCID        68     441
MATCID        68     514
MATCID        69     442
MATCID        70     444
MATCID        70     498
MATCID        71     456
MATCID        71     480
MATCID        72     459
MATCID        72     582
MATCID        73     462
MATCID        74     464
MATCID        75     467
MATCID        76     482
MATCID        77     487
MATCID        78     489
MATCID        79     491
MATCID        80     494
MATCID        81     500
MATCID        81     506
MATCID        81     517
MATCID        81     556
MATCID        81     586
MATCID        82     505
MATCID        83     507
MATCID        84     512
MATCID        85     519
MATCID        86     526
MATCID        86     555
MATCID        87     528
MATCID        88     529
MATCID        88     595
MATCID        89     551
MATCID        90     554
MATCID        91     560
MATCID        92     570
MATCID        93     573
MATCID        94     574
MATCID        95     578
MATCID        96     580
MATCID        97     584
MATCID        98     594
MATCID        99     603
MATCID       100     605
MATCID       101     606
MATCID       102     615
MATCID       103     624
MATCID       104     628
MATCID       105     633
$*
$* PROPERTY CARDS
$*
$*  Property: Laminate1 - Extrusion
$*  Zone: 1
PCOMPS         3       0      13                 20.0000  0.0000        +
+              1       11.000000  0.0000                     YES     ABS
$*
$* MATERIAL CARDS
$*
$*  Material: Transversal_isotropic::reference_shaft_fem1::[1]
MAT11          11.2100+88.6000+68.6000+60.2700000.2700000.4000004.7000+6+
+       4.7000+63.1000+61.4900-6
$*
$* LOAD AND CONSTRAINT CARDS
$*
$*  Constraint: NoTrans(1)
SPC            1     375     123  0.0000
SPC            1     376     123  0.0000
SPC            1     419     123  0.0000
SPC            1     489     123  0.0000
SPC            1     490     123  0.0000
SPC            1     503     123  0.0000
SPC            1     504     123  0.0000
SPC            1     524     123  0.0000
SPC            1     525     123  0.0000
SPC            1     544     123  0.0000
SPC            1     596     123  0.0000
SPC            1     605     123  0.0000
SPC            1     610     123  0.0000
SPC            1     615     123  0.0000
SPC            1     636     123  0.0000
SPC            1     637     123  0.0000
SPC            1     642     123  0.0000
SPC            1     650     123  0.0000
SPC            1     652     123  0.0000
SPC            1     660     123  0.0000
SPC            1     669     123  0.0000
SPC            1     671     123  0.0000
SPC            1     675     123  0.0000
SPC            1     680     123  0.0000
SPC            1     684     123  0.0000
SPC            1     694     123  0.0000
SPC            1     695     123  0.0000
SPC            1     696     123  0.0000
SPC            1     699     123  0.0000
SPC            1     700     123  0.0000
SPC            1     703     123  0.0000
SPC            1     704     123  0.0000
SPC            1     727     123  0.0000
SPC            1     728     123  0.0000
SPC            1     771     123  0.0000
SPC            1     841     123  0.0000
SPC            1     842     123  0.0000
SPC            1     855     123  0.0000
SPC            1     856     123  0.0000
SPC            1     876     123  0.0000
SPC            1     877     123  0.0000
SPC            1     896     123  0.0000
SPC            1     948     123  0.0000
SPC            1     957     123  0.0000
SPC            1     962     123  0.0000
SPC            1     967     123  0.0000
SPC            1     988     123  0.0000
SPC            1     989     123  0.0000
SPC            1     994     123  0.0000
SPC            1    1002     123  0.0000
SPC            1    1004     123  0.0000
SPC            1    1012     123  0.0000
SPC            1    1021     123  0.0000
SPC            1    1023     123  0.0000
SPC            1    1027     123  0.0000
SPC            1    1032     123  0.0000
SPC            1    1036     123  0.0000
SPC            1    1046     123  0.0000
SPC            1    1047     123  0.0000
SPC            1    1048     123  0.0000
SPC            1    1051     123  0.0000
SPC            1    1052     123  0.0000
SPC            1    1055     123  0.0000
SPC            1    1056     123  0.0000
$*  Load: Force(1)
FORCE          2     357       0 15.6250  0.0000  0.00001.000000
FORCE          2     360       0 15.6250  0.0000  0.00001.000000
FORCE          2     390       0 15.6250  0.0000  0.00001.000000
FORCE          2     393       0 15.6250  0.0000  0.00001.000000
FORCE          2     416       0 15.6250  0.0000  0.00001.000000
FORCE          2     418       0 15.6250  0.0000  0.00001.000000
FORCE          2     436       0 15.6250  0.0000  0.00001.000000
FORCE          2     469       0 15.6250  0.0000  0.00001.000000
FORCE          2     472       0 15.6250  0.0000  0.00001.000000
FORCE          2     552       0 15.6250  0.0000  0.00001.000000
FORCE          2     564       0 15.6250  0.0000  0.00001.000000
FORCE          2     567       0 15.6250  0.0000  0.00001.000000
FORCE          2     569       0 15.6250  0.0000  0.00001.000000
FORCE          2     581       0 15.6250  0.0000  0.00001.000000
FORCE          2     601       0 15.6250  0.0000  0.00001.000000
FORCE          2     604       0 15.6250  0.0000  0.00001.000000
FORCE          2     613       0 15.6250  0.0000  0.00001.000000
FORCE          2     618       0 15.6250  0.0000  0.00001.000000
FORCE          2     635       0 15.6250  0.0000  0.00001.000000
FORCE          2     638       0 15.6250  0.0000  0.00001.000000
FORCE          2     639       0 15.6250  0.0000  0.00001.000000
FORCE          2     662       0 15.6250  0.0000  0.00001.000000
FORCE          2     673       0 15.6250  0.0000  0.00001.000000
FORCE          2     674       0 15.6250  0.0000  0.00001.000000
FORCE          2     682       0 15.6250  0.0000  0.00001.000000
FORCE          2     683       0 15.6250  0.0000  0.00001.000000
FORCE          2     687       0 15.6250  0.0000  0.00001.000000
FORCE          2     688       0 15.6250  0.0000  0.00001.000000
FORCE          2     689       0 15.6250  0.0000  0.00001.000000
FORCE          2     691       0 15.6250  0.0000  0.00001.000000
FORCE          2     698       0 15.6250  0.0000  0.00001.000000
FORCE          2     701       0 15.6250  0.0000  0.00001.000000
FORCE          2     709       0 15.6250  0.0000  0.00001.000000
FORCE          2     712       0 15.6250  0.0000  0.00001.000000
FORCE          2     742       0 15.6250  0.0000  0.00001.000000
FORCE          2     745       0 15.6250  0.0000  0.00001.000000
FORCE          2     768       0 15.6250  0.0000  0.00001.000000
FORCE          2     770       0 15.6250  0.0000  0.00001.000000
FORCE          2     788       0 15.6250  0.0000  0.00001.000000
FORCE          2     821       0 15.6250  0.0000  0.00001.000000
FORCE          2     824       0 15.6250  0.0000  0.00001.000000
FORCE          2     904       0 15.6250  0.0000  0.00001.000000
FORCE          2     916       0 15.6250  0.0000  0.00001.000000
FORCE          2     919       0 15.6250  0.0000  0.00001.000000
FORCE          2     921       0 15.6250  0.0000  0.00001.000000
FORCE          2     933       0 15.6250  0.0000  0.00001.000000
FORCE          2     953       0 15.6250  0.0000  0.00001.000000
FORCE          2     956       0 15.6250  0.0000  0.00001.000000
FORCE          2     965       0 15.6250  0.0000  0.00001.000000
FORCE          2     970       0 15.6250  0.0000  0.00001.000000
FORCE          2     987       0 15.6250  0.0000  0.00001.000000
FORCE          2     990       0 15.6250  0.0000  0.00001.000000
FORCE          2     991       0 15.6250  0.0000  0.00001.000000
FORCE          2    1014       0 15.6250  0.0000  0.00001.000000
FORCE          2    1025       0 15.6250  0.0000  0.00001.000000
FORCE          2    1026       0 15.6250  0.0000  0.00001.000000
FORCE          2    1034       0 15.6250  0.0000  0.00001.000000
FORCE          2    1035       0 15.6250  0.0000  0.00001.000000
FORCE          2    1039       0 15.6250  0.0000  0.00001.000000
FORCE          2    1040       0 15.6250  0.0000  0.00001.000000
FORCE          2    1041       0 15.6250  0.0000  0.00001.000000
FORCE          2    1043       0 15.6250  0.0000  0.00001.000000
FORCE          2    1050       0 15.6250  0.0000  0.00001.000000
FORCE          2    1053       0 15.6250  0.0000  0.00001.000000
$*
$* COORDINATE SYSTEM CARDS
$*
CORD2R*                1               00.0000000000E+000.0000000000E+00+
*       0.0000000000E+002.9028415856E-01-9.569404931E-013.6661307866E-07+
*       1.0417235413E-052.7769180603E-06-9.999999999E-01                +
*
CORD2R*                2               00.0000000000E+000.0000000000E+00+
*       0.0000000000E+004.7139739286E-018.8192091369E-01-4.066150348E-07+
*       9.9327535473E-06-5.770233001E-06-9.999999999E-01                +
*
CORD2R*                3               00.0000000000E+000.0000000000E+00+
*       0.0000000000E+009.9518457671E-01-9.801866296E-02-2.579369886E-07+
*       -9.655723991E-07-7.171958375E-06-1.000000000E+00                +
*
CORD2R*                4               00.0000000000E+000.0000000000E+00+
*       0.0000000000E+006.3439066928E-017.7301259933E-012.2428063737E-06+
*       -1.831037337E-051.7928215405E-05-9.999999997E-01                +
*
CORD2R*                5               00.0000000000E+000.0000000000E+00+
*       0.0000000000E+00-8.819228048E-014.7139385492E-016.4240720067E-07+
*       -1.276331424E-06-1.025084616E-06-1.000000000E+00                +
*
CORD2R*                6               00.0000000000E+000.0000000000E+00+
*       0.0000000000E+00-9.569393619E-012.9028788743E-017.8753023081E-08+
*       2.6613951442E-069.0446308920E-06-1.000000000E+00                +
*
CORD2R*                7               00.0000000000E+000.0000000000E+00+
*       0.0000000000E+00-7.730095804E-01-6.343943479E-011.9417623873E-07+
*       8.1489942093E-07-1.299036319E-06-1.000000000E+00                +
*
CORD2R*                8               00.0000000000E+000.0000000000E+00+
*       0.0000000000E+00-9.951846408E-01-9.801801197E-023.3349070371E-07+
*       -3.318848496E-07-3.268785791E-08-1.000000000E+00                +
*
CORD2R*                9               00.0000000000E+000.0000000000E+00+
*       0.0000000000E+009.5694054227E-01-2.902839964E-011.3693267426E-06+
*       7.3571038249E-061.9535986317E-05-9.999999998E-01                +
*
CORD2R*               10               00.0000000000E+000.0000000000E+00+
*       0.0000000000E+00-6.343918728E-017.7301161164E-012.7998225918E-07+
*       3.6821486175E-063.3840467299E-06-1.000000000E+00                +
*
CORD2R*               11               00.0000000000E+000.0000000000E+00+
*       0.0000000000E+00-6.343917629E-01-7.730117018E-01-2.755343257E-07+
*       -6.387973664E-065.5988960961E-06-1.000000000E+00                +
*
CORD2R*               12               00.0000000000E+000.0000000000E+00+
*       0.0000000000E+009.8015069585E-029.9518493062E-017.9804928208E-08+
*       -2.303433486E-063.0705461089E-07-1.000000000E+00                +
*
CORD2R*               13               00.0000000000E+000.0000000000E+00+
*       0.0000000000E+004.7139674527E-01-8.819212598E-01-1.802841097E-06+
*       -2.625439906E-066.4089312322E-07-1.000000000E+00                +
*
CORD2R*               14               00.0000000000E+000.0000000000E+00+
*       0.0000000000E+009.8015791230E-02-9.951848595E-01-2.051334867E-07+
*       -6.096561086E-06-3.943244998E-07-1.000000000E+00                +
*
CORD2R*               15               00.0000000000E+000.0000000000E+00+
*       0.0000000000E+00-8.819230262E-014.7139344068E-01-6.247503943E-09+
*       8.3904728932E-081.4372284945E-07-1.000000000E+00                +
*
CORD2R*               16               00.0000000000E+000.0000000000E+00+
*       0.0000000000E+00-8.819227554E-01-4.713939473E-01-6.430051190E-07+
*       -5.593943743E-061.1829662708E-05-9.999999999E-01                +
*
CORD2R*               17               00.0000000000E+000.0000000000E+00+
*       0.0000000000E+00-9.569403500E-01-2.902846303E-012.7555976425E-07+
*       -1.086651776E-062.6329370784E-06-1.000000000E+00                +
*
CORD2R*               18               00.0000000000E+000.0000000000E+00+
*       0.0000000000E+006.3439407920E-01-7.730098009E-01-4.044658902E-07+
*       -1.086841373E-05-8.396260203E-06-9.999999999E-01                +
*
CORD2R*               19               00.0000000000E+000.0000000000E+00+
*       0.0000000000E+00-2.902842179E-01-9.569404751E-011.1209711114E-07+
*       -7.151459753E-079.9795631495E-08-1.000000000E+00                +
*
CORD2R*               20               00.0000000000E+000.0000000000E+00+
*       0.0000000000E+006.3439048446E-017.7301275101E-013.9187074808E-07+
*       2.6581618790E-06-1.674541400E-06-1.000000000E+00                +
*
CORD2R*               21               00.0000000000E+000.0000000000E+00+
*       0.0000000000E+00-9.569390646E-012.9028886772E-01-1.430829997E-06+
*       4.5794124276E-061.0167074855E-05-9.999999999E-01                +
*
CORD2R*               22               00.0000000000E+000.0000000000E+00+
*       0.0000000000E+007.7301062663E-016.3439307304E-01-5.509826315E-09+
*       4.8556804934E-07-6.003519026E-07-1.000000000E+00                +
*
CORD2R*               23               00.0000000000E+000.0000000000E+00+
*       0.0000000000E+00-9.569405407E-012.9028400145E-011.3709045763E-06+
*       -7.358510717E-06-1.953518837E-05-9.999999998E-01                +
*
CORD2R*               24               00.0000000000E+000.0000000000E+00+
*       0.0000000000E+00-9.801578889E-02-9.951848598E-012.0513351443E-07+
*       -1.114392575E-06-9.636947966E-08-1.000000000E+00                +
*
CORD2R*               25               00.0000000000E+000.0000000000E+00+
*       0.0000000000E+002.9028422858E-01-9.569404718E-01-4.271137125E-07+
*       -3.042985418E-06-4.767453938E-07-1.000000000E+00                +
*
CORD2R*               26               00.0000000000E+000.0000000000E+00+
*       0.0000000000E+00-8.819223310E-01-4.713947412E-011.3392574593E-06+
*       1.3627075143E-05-2.833565623E-05-9.999999995E-01                +
*
CORD2R*               27               00.0000000000E+000.0000000000E+00+
*       0.0000000000E+009.9518464198E-019.8018000203E-023.3334749279E-07+
*       3.3174231236E-073.2673982659E-08-1.000000000E+00                +
*
CORD2R*               28               00.0000000000E+000.0000000000E+00+
*       0.0000000000E+008.8192233215E-01-4.713947391E-01-1.339257592E-06+
*       -1.463740227E-061.0257305186E-07-1.000000000E+00                +
*
CORD2R*               29               00.0000000000E+000.0000000000E+00+
*       0.0000000000E+00-4.713990158E-01-8.819200462E-01-8.160367894E-08+
*       -6.252643147E-063.4346577307E-06-1.000000000E+00                +
*
CORD2R*               30               00.0000000000E+000.0000000000E+00+
*       0.0000000000E+00-4.713966742E-018.8192129782E-01-1.791798699E-06+
*       2.6201746208E-06-6.311868167E-07-1.000000000E+00                +
*
CORD2R*               31               00.0000000000E+000.0000000000E+00+
*       0.0000000000E+009.9518443195E-01-9.802013263E-02-3.746852268E-07+
*       -1.362488115E-06-1.001061422E-05-9.999999999E-01                +
*
CORD2R*               32               00.0000000000E+000.0000000000E+00+
*       0.0000000000E+00-9.951844332E-019.8020119717E-02-3.745385460E-07+
*       1.3623452932E-061.0010661947E-05-9.999999999E-01                +
*
CORD2R*               33               00.0000000000E+000.0000000000E+00+
*       0.0000000000E+009.5693936125E-012.9028788968E-01-7.875289650E-08+
*       2.8427583613E-06-9.642497557E-06-9.999999999E-01                +
*
CORD2R*               34               00.0000000000E+000.0000000000E+00+
*       0.0000000000E+002.9028417614E-019.5694048774E-011.1209075972E-07+
*       7.1515132480E-07-9.980385890E-08-1.000000000E+00                +
*
CORD2R*               35               00.0000000000E+000.0000000000E+00+
*       0.0000000000E+007.7300963666E-01-6.343942793E-018.7647127025E-07+
*       1.6966081904E-051.9291588744E-05-9.999999997E-01                +
*
CORD2R*               36               00.0000000000E+000.0000000000E+00+
*       0.0000000000E+00-9.569400925E-01-2.902854790E-013.4465538349E-07+
*       1.7437714287E-06-6.935724731E-06-1.000000000E+00                +
*
CORD2R*               37               00.0000000000E+000.0000000000E+00+
*       0.0000000000E+006.3439278010E-01-7.730108670E-01-2.453628599E-07+
*       -5.663571934E-06-4.330555271E-06-1.000000000E+00                +
*
CORD2R*               38               00.0000000000E+000.0000000000E+00+
*       0.0000000000E+009.9518476729E-01-9.801672796E-022.5189780417E-07+
*       9.5386868894E-077.1148853830E-06-1.000000000E+00                +
*
CORD2R*               39               00.0000000000E+000.0000000000E+00+
*       0.0000000000E+007.7301016378E-01-6.343936370E-01-2.112932807E-07+
*       -4.542364153E-06-5.201818216E-06-1.000000000E+00                +
*
CORD2R*               40               00.0000000000E+000.0000000000E+00+
*       0.0000000000E+009.8014406906E-029.9518499589E-011.4568536004E-06+
*       -1.365160595E-052.8084302639E-06-9.999999999E-01                +
*
CORD2R*               41               00.0000000000E+000.0000000000E+00+
*       0.0000000000E+008.8192302506E-014.7139344276E-016.2472885044E-09+
*       8.7331239621E-08-1.501339139E-07-1.000000000E+00                +
*
CORD2R*               42               00.0000000000E+000.0000000000E+00+
*       0.0000000000E+00-9.801507193E-029.9518493039E-01-7.980526440E-08+
*       -1.480215548E-06-2.259767918E-07-1.000000000E+00                +
*
CORD2R*               43               00.0000000000E+000.0000000000E+00+
*       0.0000000000E+004.7139489276E-018.8192225002E-016.7383864291E-07+
*       -9.802175652E-066.0034024352E-06-9.999999999E-01                +
*
CORD2R*               44               00.0000000000E+000.0000000000E+00+
*       0.0000000000E+009.8016654903E-02-9.951847745E-011.5462099133E-06+
*       2.8793661724E-051.2822226833E-06-9.999999996E-01                +
*
CORD2R*               45               00.0000000000E+000.0000000000E+00+
*       0.0000000000E+008.8192280365E-014.7139385699E-01-6.424074341E-07+
*       5.5945409298E-06-1.182951490E-05-9.999999999E-01                +
*
CORD2R*               46               00.0000000000E+000.0000000000E+00+
*       0.0000000000E+009.8018962152E-02-9.951845472E-01-2.699989188E-07+
*       -1.111595697E-05-8.235413714E-07-9.999999999E-01                +
*
CORD2R*               47               00.0000000000E+000.0000000000E+00+
*       0.0000000000E+004.7139922014E-018.8191993698E-01-1.481827023E-06+
*       1.1425427511E-05-7.787288112E-06-9.999999999E-01                +
*
CORD2R*               48               00.0000000000E+000.0000000000E+00+
*       0.0000000000E+00-9.951847758E-019.8016641135E-02-1.484757661E-07+
*       4.9321778074E-073.4929483047E-06-1.000000000E+00                +
*
CORD2R*               49               00.0000000000E+000.0000000000E+00+
*       0.0000000000E+009.5693953426E-012.9028731932E-012.1533593783E-06+
*       -6.251230728E-062.8025368859E-05-9.999999996E-01                +
*
CORD2R*               50               00.0000000000E+000.0000000000E+00+
*       0.0000000000E+009.5693953705E-01-2.902873101E-01-2.152324354E-06+
*       -4.380336347E-06-7.025428293E-06-1.000000000E+00                +
*
CORD2R*               51               00.0000000000E+000.0000000000E+00+
*       0.0000000000E+00-7.730106281E-016.3439307122E-015.5098962291E-09+
*       -1.083013694E-07-1.232803713E-07-1.000000000E+00                +
*
CORD2R*               52               00.0000000000E+000.0000000000E+00+
*       0.0000000000E+00-4.713993000E-01-8.819198943E-01-1.484423531E-06+
*       -1.142354061E-057.7892251015E-06-9.999999999E-01                +
*
CORD2R*               53               00.0000000000E+000.0000000000E+00+
*       0.0000000000E+00-9.801440925E-029.9518499566E-01-1.456854079E-06+
*       1.1232296491E-05-3.576492567E-07-9.999999999E-01                +
*
CORD2R*               54               00.0000000000E+000.0000000000E+00+
*       0.0000000000E+006.3439614997E-01-7.730081015E-011.1459288397E-06+
*       1.1398689059E-057.8723050934E-06-9.999999999E-01                +
*
CORD2R*               55               00.0000000000E+000.0000000000E+00+
*       0.0000000000E+00-4.713987775E-01-8.819201736E-016.7086925940E-07+
*       1.1875499948E-05-7.108313887E-06-9.999999999E-01                +
*
CORD2R*               56               00.0000000000E+000.0000000000E+00+
*       0.0000000000E+00-9.951844507E-019.8019942005E-025.1468496136E-07+
*       -1.861979332E-06-1.365362895E-05-9.999999999E-01                +
*
CORD2R*               57               00.0000000000E+000.0000000000E+00+
*       0.0000000000E+00-8.819220740E-01-4.713952220E-01-3.484760164E-07+
*       -4.149585891E-068.5026050850E-06-1.000000000E+00                +
*
CORD2R*               58               00.0000000000E+000.0000000000E+00+
*       0.0000000000E+004.7139917656E-01-8.819199603E-015.2935902429E-07+
*       2.6433705255E-068.1268561441E-07-1.000000000E+00                +
*
CORD2R*               59               00.0000000000E+000.0000000000E+00+
*       0.0000000000E+00-2.902839768E-01-9.569405482E-011.9027499652E-07+
*       2.5641185688E-06-9.766516148E-07-1.000000000E+00                +
*
CORD2R*               60               00.0000000000E+000.0000000000E+00+
*       0.0000000000E+00-6.343946482E-017.7300933391E-012.2416422717E-06+
*       -2.992111090E-05-2.165581917E-05-9.999999993E-01                +
*
CORD2R*               61               00.0000000000E+000.0000000000E+00+
*       0.0000000000E+009.8019237675E-029.9518452010E-01-1.671328851E-06+
*       4.0189694313E-06-2.075258536E-06-1.000000000E+00                +
*
CORD2R*               62               00.0000000000E+000.0000000000E+00+
*       0.0000000000E+007.7301072455E-01-6.343929537E-015.7898728236E-09+
*       1.0851931667E-071.2310465040E-07-1.000000000E+00                +
*
CORD2R*               63               00.0000000000E+000.0000000000E+00+
*       0.0000000000E+00-2.902846254E-019.5694035146E-01-7.215045224E-08+
*       4.0712256598E-061.1595955397E-06-1.000000000E+00                +
*
CORD2R*               64               00.0000000000E+000.0000000000E+00+
*       0.0000000000E+00-9.569400911E-012.9028548359E-01-3.446613880E-07+
*       -7.808491777E-08-1.444729413E-06-1.000000000E+00                +
*
CORD2R*               65               00.0000000000E+000.0000000000E+00+
*       0.0000000000E+00-4.713967432E-01-8.819212609E-011.8028412340E-06+
*       3.1710526171E-05-1.899384983E-05-9.999999993E-01                +
*
CORD2R*               66               00.0000000000E+000.0000000000E+00+
*       0.0000000000E+00-9.951846250E-019.8018172584E-021.0713966595E-06+
*       -3.884955640E-06-2.851360507E-05-9.999999996E-01                +
*
CORD2R*               67               00.0000000000E+000.0000000000E+00+
*       0.0000000000E+00-2.902841148E-019.5694050636E-013.6608006182E-07+
*       -1.041712431E-05-2.777440842E-06-9.999999999E-01                +
*
CORD2R*               68               00.0000000000E+000.0000000000E+00+
*       0.0000000000E+00-9.569414711E-01-2.902809343E-01-5.284188867E-07+
*       -2.147626894E-068.9002473826E-06-1.000000000E+00                +
*
CORD2R*               69               00.0000000000E+000.0000000000E+00+
*       0.0000000000E+00-6.343905807E-01-7.730126720E-012.2391419187E-06+
*       1.8312699995E-05-1.792538053E-05-9.999999997E-01                +
*
CORD2R*               70               00.0000000000E+000.0000000000E+00+
*       0.0000000000E+009.8015065844E-02-9.951849310E-01-7.971633888E-08+
*       1.4802240261E-062.2588826183E-07-1.000000000E+00                +
*
CORD2R*               71               00.0000000000E+000.0000000000E+00+
*       0.0000000000E+00-9.801506350E-02-9.951849312E-017.9715996605E-08+
*       2.3034650866E-06-3.069683470E-07-1.000000000E+00                +
*
CORD2R*               72               00.0000000000E+000.0000000000E+00+
*       0.0000000000E+00-9.801666098E-029.9518477388E-011.5463170863E-06+
*       -2.879367246E-05-1.282116225E-06-9.999999996E-01                +
*
CORD2R*               73               00.0000000000E+000.0000000000E+00+
*       0.0000000000E+008.8192248178E-01-4.713944592E-015.1332935891E-07+
*       1.6454014633E-061.9893894909E-06-1.000000000E+00                +
*
CORD2R*               74               00.0000000000E+000.0000000000E+00+
*       0.0000000000E+009.5694124691E-01-2.902816735E-012.2394825262E-06+
*       1.1235946352E-052.9325509547E-05-9.999999995E-01                +
*
CORD2R*               75               00.0000000000E+000.0000000000E+00+
*       0.0000000000E+00-9.951847684E-019.8016716411E-022.5177459664E-07+
*       -9.537492134E-07-7.114930177E-06-1.000000000E+00                +
*
CORD2R*               76               00.0000000000E+000.0000000000E+00+
*       0.0000000000E+00-4.713961128E-018.8192159790E-013.9993339408E-07+
*       1.6533963519E-061.3372367908E-06-1.000000000E+00                +
*
CORD2R*               77               00.0000000000E+000.0000000000E+00+
*       0.0000000000E+009.5694092159E-01-2.902827459E-01-3.024521581E-07+
*       -4.072592229E-06-1.238371227E-05-9.999999999E-01                +
*
CORD2R*               78               00.0000000000E+000.0000000000E+00+
*       0.0000000000E+002.9028418298E-019.5694048567E-014.2537589952E-07+
*       -1.184229675E-054.0368313341E-06-9.999999999E-01                +
*
CORD2R*               79               00.0000000000E+000.0000000000E+00+
*       0.0000000000E+00-9.569395364E-01-2.902873124E-012.1523239898E-06+
*       6.2522451188E-06-2.802514677E-05-9.999999996E-01                +
*
CORD2R*               80               00.0000000000E+000.0000000000E+00+
*       0.0000000000E+008.8192131539E-014.7139664133E-019.0430578438E-07+
*       -9.049937785E-061.8849601462E-05-9.999999998E-01                +
*
CORD2R*               81               00.0000000000E+000.0000000000E+00+
*       0.0000000000E+006.3439187098E-017.7301161313E-01-2.799822255E-07+
*       6.3838819058E-06-5.601293613E-06-1.000000000E+00                +
*
CORD2R*               82               00.0000000000E+000.0000000000E+00+
*       0.0000000000E+009.5693906387E-012.9028886997E-011.4308304075E-06+
*       -2.610957791E-061.3536026760E-05-9.999999999E-01                +
*
CORD2R*               83               00.0000000000E+000.0000000000E+00+
*       0.0000000000E+00-4.713992222E-018.8191993587E-011.4818267924E-06+
*       -1.163355371E-05-4.538077906E-06-9.999999999E-01                +
*
CORD2R*               84               00.0000000000E+000.0000000000E+00+
*       0.0000000000E+009.9518462380E-01-9.801818475E-021.0718443509E-06+
*       3.8853922137E-062.8513466611E-05-9.999999996E-01                +
*
CORD2R*               85               00.0000000000E+000.0000000000E+00+
*       0.0000000000E+006.3439190832E-017.7301158248E-019.8361193942E-07+
*       -8.132364137E-067.9464759422E-06-9.999999999E-01                +
*
CORD2R*               86               00.0000000000E+000.0000000000E+00+
*       0.0000000000E+00-6.343906711E-017.7301259784E-01-2.242806382E-06+
*       1.0662697715E-055.8492055496E-06-9.999999999E-01                +
*
CORD2R*               87               00.0000000000E+000.0000000000E+00+
*       0.0000000000E+00-7.730095168E-01-6.343944253E-011.1207962989E-07+
*       1.5355252667E-06-2.047709158E-06-1.000000000E+00                +
*
CORD2R*               88               00.0000000000E+000.0000000000E+00+
*       0.0000000000E+00-6.343927719E-017.7301087374E-015.8661271852E-07+
*       -9.229213157E-06-6.815341903E-06-9.999999999E-01                +
*
CORD2R*               89               00.0000000000E+000.0000000000E+00+
*       0.0000000000E+008.8192237986E-014.7139464984E-011.3371117856E-06+
*       -1.362914344E-052.8334980909E-05-9.999999995E-01                +
*
CORD2R*               90               00.0000000000E+000.0000000000E+00+
*       0.0000000000E+008.8192164509E-014.7139602451E-01-4.124634853E-07+
*       4.8642177371E-06-9.975311945E-06-9.999999999E-01                +
*
CORD2R*               91               00.0000000000E+000.0000000000E+00+
*       0.0000000000E+009.9518444946E-01-9.801995487E-025.1489142553E-07+
*       1.8621843128E-061.3653601927E-05-9.999999999E-01                +
*
CORD2R*               92               00.0000000000E+000.0000000000E+00+
*       0.0000000000E+009.5693906644E-01-2.902888615E-01-1.429808918E-06+
*       -4.578487898E-06-1.016754484E-05-9.999999999E-01                +
*
CORD2R*               93               00.0000000000E+000.0000000000E+00+
*       0.0000000000E+00-7.730095398E-016.3439439730E-018.7643645033E-07+
*       -1.696605789E-05-1.929160819E-05-9.999999997E-01                +
*
CORD2R*               94               00.0000000000E+000.0000000000E+00+
*       0.0000000000E+009.5694009045E-012.9028548584E-013.4466101170E-07+
*       -1.743762797E-066.9357154884E-06-1.000000000E+00                +
*
CORD2R*               95               00.0000000000E+000.0000000000E+00+
*       0.0000000000E+00-9.801440157E-02-9.951849964E-011.4562771069E-06+
*       1.3651809826E-05-2.807870986E-06-9.999999999E-01                +
*
CORD2R*               96               00.0000000000E+000.0000000000E+00+
*       0.0000000000E+006.3439182608E-01-7.730116500E-01-9.820434825E-07+
*       -4.628624143E-06-2.528186788E-06-1.000000000E+00                +
*
CORD2R*               97               00.0000000000E+000.0000000000E+00+
*       0.0000000000E+009.5694147182E-01-2.902809321E-015.2841913982E-07+
*       4.5542323176E-07-3.190211684E-07-1.000000000E+00                +
*
CORD2R*               98               00.0000000000E+000.0000000000E+00+
*       0.0000000000E+006.3439454992E-01-7.730094146E-012.2303467706E-06+
*       2.9915778633E-052.1666049387E-05-9.999999993E-01                +
*
CORD2R*               99               00.0000000000E+000.0000000000E+00+
*       0.0000000000E+00-7.730104064E-016.3439334143E-013.8525497535E-07+
*       -7.525654408E-06-8.562754118E-06-9.999999999E-01                +
*
CORD2R*              100               00.0000000000E+000.0000000000E+00+
*       0.0000000000E+00-8.819212644E-01-4.713967367E-019.0566663945E-07+
*       9.0486306454E-06-1.885003804E-05-9.999999998E-01                +
*
CORD2R*              101               00.0000000000E+000.0000000000E+00+
*       0.0000000000E+004.7139667213E-018.8192129893E-011.7917988361E-06+
*       -3.171750336E-051.8985055003E-05-9.999999993E-01                +
*
CORD2R*              102               00.0000000000E+000.0000000000E+00+
*       0.0000000000E+00-9.569390658E-01-2.902888638E-011.4298093285E-06+
*       2.6119573577E-06-1.353580468E-05-9.999999999E-01                +
*
CORD2R*              103               00.0000000000E+000.0000000000E+00+
*       0.0000000000E+007.7301050295E-01-6.343932237E-013.8538002318E-07+
*       7.5257548607E-068.5626821402E-06-9.999999999E-01                +
*
CORD2R*              104               00.0000000000E+000.0000000000E+00+
*       0.0000000000E+00-6.343918243E-01-7.730116515E-019.8204306560E-07+
*       8.1333663579E-06-7.945267287E-06-9.999999999E-01                +
*
CORD2R*              105               00.0000000000E+000.0000000000E+00+
*       0.0000000000E+006.3439058256E-01-7.730126705E-01-2.239141928E-06+
*       -1.066096474E-05-5.852522058E-06-9.999999999E-01                +
*
ENDDATA 54620fc9
